LAMMPS (3 Mar 2020)


# ----------------- Init Section -----------------

include "gen.in.init"

 # a variable named `cutoff` is required by GROMOS_54A7_ATB.lt
 variable cutoff equal 14.0 # Angstroms
 boundary p p p

        units real
        atom_style      full
        bond_style      harmonic
        angle_style     harmonic
        dihedral_style  harmonic
        improper_style  harmonic
        #pair_style      lj/cut/coul/cut ${cutoff}
        pair_style      lj/cut/coul/long   ${cutoff}
        pair_style      lj/cut/coul/long   14
        special_bonds lj 0.0 0.0 0.5 coul 0.0 0.0 1.0 angle yes dihedral yes
  	kspace_style pppm 1e-4

#package            gpu 4 newton off
# ----------------- Atom Definition Section -----------------

read_data "data.4"
  orthogonal box = (9.46703 9.46703 9.46703) to (50.533 50.533 50.533)
  2 by 2 by 2 MPI processor grid
  reading atoms ...
  8661 atoms
  reading velocities ...
  8661 velocities
  scanning bonds ...
  1 = max bonds/atom
  scanning angles ...
  1 = max angles/atom
  reading bonds ...
  5774 bonds
  reading angles ...
  2887 angles
  2 = max # of 1-2 neighbors
  1 = max # of 1-3 neighbors
  1 = max # of 1-4 neighbors
  5774 = # of 1-3 neighbors before angle trim
  5774 = # of 1-3 neighbors after angle trim
  5774 = # of 1-4 neighbors before dihedral trim
  0 = # of 1-4 neighbors after dihedral trim
  2 = max # of special neighbors
  special bonds CPU = 0.00212622 secs
  read_data CPU = 0.0959322 secs

# ----------------- Settings Section -----------------

include "gen.in.settings"

       #     atom_id      mass
        mass 1            15.999400000
        mass 2           15.999400000
        mass 3           15.999400000
        mass 4           15.999400000
        mass 5           15.999400000
        mass 6            14.006700000
        mass 7           14.006700000
        mass 8           14.006700000
        mass 9           14.006700000
        mass 10           14.006700000
        mass 11           14.006700000
        mass 12            12.011000000
        mass 13          12.011000000
        mass 14          13.019000000
        mass 15          14.027000000
        mass 16          15.035000000
        mass 17          16.043000000
        mass 18         14.027000000
        mass 19          12.011000000
        mass 20            1.008000000
        mass 21             1.008000000
        mass 22           1.000000000
        mass 23            32.060000000
        mass 24         63.546000000
        mass 25         63.546000000
        mass 26           55.847000000
        mass 27         65.370000000
        mass 28         24.305000000
        mass 29         40.080000000
        mass 30           39.948000000
        mass 31            18.998400000
        mass 32           35.453000000
        mass 33           79.904000000
        mass 34         12.011000000
        mass 35         15.999400000
        mass 36          22.989800000
        mass 37          35.453000000
        mass 38         12.011000000
        mass 39        35.453000000
        mass 40          1.008000000
        mass 41        32.060000000
        mass 42        12.011000000
        mass 43        15.999400000
        mass 44         12.011000000
        mass 45        35.453000000
        mass 46         18.998400000
        mass 47         12.011000000
        mass 48        13.019000000
        mass 49         15.999400000
        mass 50        12.011000000
        mass 51        15.999400000
        mass 52        14.006700000
        mass 53         15.035000000
        mass 54            126.904470000
        mass 55        35.453000000
        mass 56            10.811000000
        mass 57           78.960000000
        mass 58          1.008000000
        mass 59        35.453000000
        mass 60        79.904000000
        mass 61        15.999400000
        mass 62         14.006700000
        mass 63         12.011000000
        mass 64         12.011000000
        mass 65         14.006700000
        mass 66         14.006700000
        mass 67         15.999400000
        mass 68           28.080000000
        mass 69            30.973800000
	## water spce
	mass 70 	15.9994
	mass 71		1.008
       #           atom_i       atom_j       epsilon                  sigma
        pair_coeff 1      1      3.057142739336137782E-01 2.760065475311210825E+00
        pair_coeff 1      2     3.550276087952778381E-01 2.692123523613648928E+00
        pair_coeff 2     2     4.122954462841457168E-01 2.625854035428913935E+00
        pair_coeff 1      3     2.204919358198741963E-01 2.914561468303898728E+00
        pair_coeff 2     3     1.353372555548385814E-01 3.161567388722811067E+00
        pair_coeff 3     3     2.030610329881481768E-01 2.954841833242532800E+00
        pair_coeff 1      4     2.779220672123761116E-01 2.804259278747785356E+00
        pair_coeff 2     4     3.227523716320707670E-01 2.735229449503375765E+00
        pair_coeff 3     4     2.030610329881481768E-01 2.954841833242532800E+00
        pair_coeff 4     4     2.526564247385237327E-01 2.849160707521389835E+00
        pair_coeff 1      5     1.928839685607480758E-01 3.016736863519489109E+00
        pair_coeff 2     5     1.183915722290306144E-01 3.272402037762298210E+00
        pair_coeff 3     5     1.776356026680076250E-01 3.058429331874637391E+00
        pair_coeff 4     5     1.776356026680076250E-01 3.058429331874637391E+00
        pair_coeff 5     5     1.553937103090970162E-01 3.165648283720967182E+00
        pair_coeff 1      6      1.694765154967038112E-01 3.064144913095461664E+00
        pair_coeff 2     6      9.205677104655286824E-02 3.392227199027124662E+00
        pair_coeff 3     6      1.381226695164660401E-01 3.170419479686534814E+00
        pair_coeff 4     6      1.381226695164660401E-01 3.170419479686534814E+00
        pair_coeff 5     6      1.208282223360083590E-01 3.281564455306036798E+00
        pair_coeff 6      6      1.529146624006174071E-01 3.136473222385702364E+00
        pair_coeff 1      7     1.295153862773237297E-01 3.204601223054668324E+00
        pair_coeff 2     7     7.949613606375653674E-02 3.476187697824344891E+00
        pair_coeff 3     7     1.192765986091082336E-01 3.248890049401691016E+00
        pair_coeff 4     7     1.192765986091082336E-01 3.248890049401691016E+00
        pair_coeff 5     7     1.043418826661619003E-01 3.362785957386363656E+00
        pair_coeff 6      7     8.113226830524199185E-02 3.485920696025768706E+00
        pair_coeff 7     7     7.006222102981565780E-02 3.572200188298519929E+00
        pair_coeff 1      8     9.498357859321329699E-02 3.374577969603924643E+00
        pair_coeff 2     8     3.498417334104661491E-02 3.985801065571819457E+00
        pair_coeff 3     8     8.747468933197311003E-02 3.421215940224123120E+00
        pair_coeff 4     8     8.747468933197311003E-02 3.421215940224123120E+00
        pair_coeff 5     8     7.652191525386708992E-02 3.541153054130216749E+00
        pair_coeff 6      8     1.529146624006174071E-01 3.136473222385702364E+00
        pair_coeff 7     8     5.138200694820247577E-02 3.761674922833770918E+00
        pair_coeff 8     8     1.529146624006174071E-01 3.136473222385702364E+00
        pair_coeff 1      9     1.582887664986303011E-01 3.099220950402574282E+00
        pair_coeff 2     9     9.715714619416199183E-02 3.361876561464794300E+00
        pair_coeff 3     9     1.457753106303604218E-01 3.142053380689358466E+00
        pair_coeff 4     9     1.457753106303604218E-01 3.142053380689358466E+00
        pair_coeff 5     9     1.275226702872701012E-01 3.252203929734818200E+00
        pair_coeff 6      9     9.915676463161025855E-02 3.371289499249087385E+00
        pair_coeff 7     9     8.562737496854166963E-02 3.454731772227725983E+00
        pair_coeff 8     9     6.279712962164887835E-02 3.637975809775669589E+00
        pair_coeff 9     9     1.046505125905587974E-01 3.341126193637144581E+00
        pair_coeff 1      10     1.356655582513865699E-01 3.179918240687398701E+00
        pair_coeff 2     10     4.996808371058240883E-02 3.755883439744826191E+00
        pair_coeff 3     10     1.249405711687586185E-01 3.223865938686866883E+00
        pair_coeff 4     10     1.249405711687586185E-01 3.223865938686866883E+00
        pair_coeff 5     10     1.092966648039405131E-01 3.336884579737899870E+00
        pair_coeff 6      10     1.529146624006174071E-01 3.136473222385702364E+00
        pair_coeff 7     10     7.338919800609181032E-02 3.544685827501989461E+00
        pair_coeff 8     10     1.529146624006174071E-01 3.136473222385702364E+00
        pair_coeff 9     10     8.969347936648916497E-02 3.428122195097171421E+00
        pair_coeff 10     10     1.529146624006174071E-01 3.136473222385702364E+00
        pair_coeff 1      11     1.468798483487794293E-01 3.138102939733744545E+00
        pair_coeff 2     11     5.409850998504587422E-02 3.706494309430008460E+00
        pair_coeff 3     11     1.352683199952084137E-01 3.181472734127216206E+00
        pair_coeff 4     11     1.352683199952084137E-01 3.181472734127216206E+00
        pair_coeff 5     11     1.183312681445888304E-01 3.293005202223091565E+00
        pair_coeff 6      11     1.529146624006174071E-01 3.136473222385702364E+00
        pair_coeff 7     11     7.945564380901472268E-02 3.498073904350435193E+00
        pair_coeff 8     11     1.529146624006174071E-01 3.136473222385702364E+00
        pair_coeff 9     11     9.710765810444493829E-02 3.383043060841536942E+00
        pair_coeff 10     11     1.529146624006174071E-01 3.136473222385702364E+00
        pair_coeff 11     11     1.529146624006174071E-01 3.136473222385702364E+00
        pair_coeff 1      12      1.423703976828447626E-01 3.143928959384971744E+00
        pair_coeff 2     12      1.653354984123153737E-01 3.066537799135407028E+00
        pair_coeff 3     12      1.294276342571315797E-01 3.194269134171567437E+00
        pair_coeff 4     12      1.294276342571315797E-01 3.194269134171567437E+00
        pair_coeff 5     12      1.015029251390483361E-01 3.367009660356621747E+00
        pair_coeff 6      12      1.006900148654086141E-01 3.351458328501519368E+00
        pair_coeff 7     12      1.006900148654086141E-01 3.351458328501519368E+00
        pair_coeff 8     12      1.006900148654086141E-01 3.351458328501519368E+00
        pair_coeff 9     12      1.006900148654086141E-01 3.351458328501519368E+00
        pair_coeff 10     12      1.006900148654086141E-01 3.351458328501519368E+00
        pair_coeff 11     12      1.006900148654086141E-01 3.351458328501519368E+00
        pair_coeff 12      12      6.630154972997068241E-02 3.581179283634555510E+00
        pair_coeff 1      13    2.260833879260638890E-02 4.280821861878790990E+00
        pair_coeff 2     13    2.625518382604388745E-02 4.175444871815595427E+00
        pair_coeff 3     13    2.055303526600580841E-02 4.349365815492619802E+00
        pair_coeff 4     13    2.055303526600580841E-02 4.349365815492619802E+00
        pair_coeff 5     13    1.611860721985387823E-02 4.584571963747981371E+00
        pair_coeff 6      13    1.598951752723829639E-02 4.563397031920107594E+00
        pair_coeff 7     13    1.598951752723829639E-02 4.563397031920107594E+00
        pair_coeff 8     13    1.598951752723829639E-02 4.563397031920107594E+00
        pair_coeff 9     13    1.598951752723829639E-02 4.563397031920107594E+00
        pair_coeff 10     13    1.598951752723829639E-02 4.563397031920107594E+00
        pair_coeff 11     13    1.598951752723829639E-02 4.563397031920107594E+00
        pair_coeff 12      13    1.052864867392752299E-02 4.876188605638604123E+00
        pair_coeff 13    13    1.671943466637953492E-03 6.639493148644640463E+00
        pair_coeff 1      14    8.326657659937299061E-02 3.721998163273249283E+00
        pair_coeff 2     14    9.669791731433396986E-02 3.630377213810442427E+00
        pair_coeff 3     14    7.569688781761180207E-02 3.781594305716371451E+00
        pair_coeff 4     14    7.569688781761180207E-02 3.781594305716371451E+00
        pair_coeff 5     14    5.936487660854102705E-02 3.986096356968000354E+00
        pair_coeff 6      14    5.888943890049144064E-02 3.967685626525647269E+00
        pair_coeff 7     14    5.888943890049144064E-02 3.967685626525647269E+00
        pair_coeff 8     14    5.888943890049144064E-02 3.967685626525647269E+00
        pair_coeff 9     14    5.888943890049144064E-02 3.967685626525647269E+00
        pair_coeff 10     14    5.888943890049144064E-02 3.967685626525647269E+00
        pair_coeff 11     14    5.888943890049144064E-02 3.967685626525647269E+00
        pair_coeff 12      14    3.877704325548127218E-02 4.239645007324696735E+00
        pair_coeff 13    14    6.157772581688245907E-03 5.772765628111153013E+00
        pair_coeff 14    14    2.267909407489697785E-02 5.019181773522026546E+00
        pair_coeff 1      15    1.731972553779473067E-01 3.351793382524915543E+00
        pair_coeff 2     15    2.011348918568659772E-01 3.269285418082499728E+00
        pair_coeff 3     15    1.574520503435884455E-01 3.405461854969619839E+00
        pair_coeff 4     15    1.574520503435884455E-01 3.405461854969619839E+00
        pair_coeff 5     15    1.234809225305322361E-01 3.589623316644059425E+00
        pair_coeff 6      15    1.224919962470180784E-01 3.573043790873992709E+00
        pair_coeff 7     15    1.224919962470180784E-01 3.573043790873992709E+00
        pair_coeff 8     15    1.224919962470180784E-01 3.573043790873992709E+00
        pair_coeff 9     15    1.224919962470180784E-01 3.573043790873992709E+00
        pair_coeff 10     15    1.224919962470180784E-01 3.573043790873992709E+00
        pair_coeff 11     15    1.224919962470180784E-01 3.573043790873992709E+00
        pair_coeff 12      15    8.065754277175206377E-02 3.817953007077415251E+00
        pair_coeff 13    15    1.280837226587758920E-02 5.198583336794016851E+00
        pair_coeff 14    15    4.717327178141728083E-02 4.519953937695086132E+00
        pair_coeff 15    15    9.812197803026967424E-02 4.070381293353582564E+00
        pair_coeff 1      16    2.517150719017874350E-01 3.216286733597559344E+00
        pair_coeff 2     16    2.923180488930291476E-01 3.137114409660223480E+00
        pair_coeff 3     16    2.288318835470794788E-01 3.267785491497223305E+00
        pair_coeff 4     16    2.288318835470794788E-01 3.267785491497223305E+00
        pair_coeff 5     16    1.794601723072659361E-01 3.444501654585188533E+00
        pair_coeff 6      16    1.780229229119614787E-01 3.428592407594721170E+00
        pair_coeff 7     16    1.780229229119614787E-01 3.428592407594721170E+00
        pair_coeff 8     16    1.780229229119614787E-01 3.428592407594721170E+00
        pair_coeff 9     16    1.780229229119614787E-01 3.428592407594721170E+00
        pair_coeff 10     16    1.780229229119614787E-01 3.428592407594721170E+00
        pair_coeff 11     16    1.780229229119614787E-01 3.428592407594721170E+00
        pair_coeff 12      16    1.172230999498745652E-01 3.663600408719620116E+00
        pair_coeff 13    16    1.861496210673063006E-02 4.988414472922134912E+00
        pair_coeff 14    16    6.855895881485152277E-02 4.337220773235620719E+00
        pair_coeff 15    16    1.426049200441300291E-01 3.905823498176049124E+00
        pair_coeff 16    16    2.072539060975635561E-01 3.747918462531858008E+00
        pair_coeff 1      17    3.038575184606040480E-01 3.199953592715625295E+00
        pair_coeff 2     17    3.528713488103634721E-01 3.121183326439165739E+00
        pair_coeff 3     17    2.762341076914582305E-01 3.251190826523163935E+00
        pair_coeff 4     17    2.762341076914582305E-01 3.251190826523163935E+00
        pair_coeff 5     17    2.166351113098009262E-01 3.427009578955020341E+00
        pair_coeff 6      17    2.149001375898457467E-01 3.411181123260212722E+00
        pair_coeff 7     17    2.149001375898457467E-01 3.411181123260212722E+00
        pair_coeff 8     17    2.149001375898457467E-01 3.411181123260212722E+00
        pair_coeff 9     17    2.149001375898457467E-01 3.411181123260212722E+00
        pair_coeff 10     17    2.149001375898457467E-01 3.411181123260212722E+00
        pair_coeff 11     17    2.149001375898457467E-01 3.411181123260212722E+00
        pair_coeff 12      17    1.415057111515590771E-01 3.644995692608442361E+00
        pair_coeff 13    17    2.247102705950117241E-02 4.963082006288297876E+00
        pair_coeff 14    17    8.276085709262456791E-02 4.315195237643504100E+00
        pair_coeff 15    17    1.721453419435647891E-01 3.885988710192354478E+00
        pair_coeff 16    17    2.501862805523388245E-01 3.728885557404626905E+00
        pair_coeff 17    17    3.020120399909287934E-01 3.709949306321822071E+00
        pair_coeff 1      18   1.871351497334000635E-01 3.303836737441132154E+00
        pair_coeff 2     18   2.173210425425619319E-01 3.222509276900889397E+00
        pair_coeff 3     18   1.701228633940000401E-01 3.356737334425898833E+00
        pair_coeff 4     18   1.701228633940000401E-01 3.356737334425898833E+00
        pair_coeff 5     18   1.334179394271841901E-01 3.538263858666045536E+00
        pair_coeff 6      18   1.323494301847202848E-01 3.521921548721142159E+00
        pair_coeff 7     18   1.323494301847202848E-01 3.521921548721142159E+00
        pair_coeff 8     18   1.323494301847202848E-01 3.521921548721142159E+00
        pair_coeff 9     18   1.323494301847202848E-01 3.521921548721142159E+00
        pair_coeff 10     18   1.323494301847202848E-01 3.521921548721142159E+00
        pair_coeff 11     18   1.323494301847202848E-01 3.521921548721142159E+00
        pair_coeff 12      18   8.714838644978782634E-02 3.763326663382849269E+00
        pair_coeff 13    18   1.383911457826323375E-02 5.124203269895830637E+00
        pair_coeff 14    18   5.096949867344095775E-02 4.455283535302380749E+00
        pair_coeff 15    18   1.060182565293115581E-01 4.012143267090165999E+00
        pair_coeff 16    18   1.540809235512614617E-01 3.849939924851243589E+00
        pair_coeff 17    18   1.859985845053877540E-01 3.830388928193292131E+00
        pair_coeff 18   18   1.145499809843573136E-01 3.954738496352121491E+00
        pair_coeff 1      19    1.916455257379301724E-01 3.213399033460031529E+00
        pair_coeff 2     19    2.225589661339335279E-01 3.134297793337560201E+00
        pair_coeff 3     19    1.742232052163001366E-01 3.264851553886924496E+00
        pair_coeff 4     19    1.742232052163001366E-01 3.264851553886924496E+00
        pair_coeff 5     19    1.366336104191038237E-01 3.441409054725308003E+00
        pair_coeff 6      19    1.355393477120732659E-01 3.425514091640016634E+00
        pair_coeff 7     19    1.355393477120732659E-01 3.425514091640016634E+00
        pair_coeff 8     19    1.355393477120732659E-01 3.425514091640016634E+00
        pair_coeff 9     19    1.355393477120732659E-01 3.425514091640016634E+00
        pair_coeff 10     19    1.355393477120732659E-01 3.425514091640016634E+00
        pair_coeff 11     19    1.355393477120732659E-01 3.425514091640016634E+00
        pair_coeff 12      19    8.924885764206048899E-02 3.660311093966183371E+00
        pair_coeff 13    19    1.417266821800791839E-02 4.983935691534572499E+00
        pair_coeff 14    19    5.219797768503835894E-02 4.333326657424202644E+00
        pair_coeff 15    19    1.085735338300921060E-01 3.902316706653073286E+00
        pair_coeff 16    19    1.577946187139902257E-01 3.744553443938634096E+00
        pair_coeff 17    19    1.904815667437584348E-01 3.725537627251366946E+00
        pair_coeff 18   19    1.173108919424925706E-01 3.846483307649072980E+00
        pair_coeff 19    19    1.201383470349284138E-01 3.741191446582464053E+00
        pair_coeff 1      20     9.300420140216696108E-02 2.559445618447809156E+00
        pair_coeff 2     20     1.080062726770026210E-01 2.496442138227286112E+00
        pair_coeff 3     20     8.454927400196994569E-02 2.600427123263571172E+00
        pair_coeff 4     20     8.454927400196994569E-02 2.600427123263571172E+00
        pair_coeff 5     20     6.630731279946860957E-02 2.741053705029336207E+00
        pair_coeff 6      20     6.577627494299018163E-02 2.728393499060382865E+00
        pair_coeff 7     20     6.577627494299018163E-02 2.728393499060382865E+00
        pair_coeff 8     20     6.577627494299018163E-02 2.728393499060382865E+00
        pair_coeff 9     20     6.577627494299018163E-02 2.728393499060382865E+00
        pair_coeff 10     20     6.577627494299018163E-02 2.728393499060382865E+00
        pair_coeff 11     20     6.577627494299018163E-02 2.728393499060382865E+00
        pair_coeff 12      20     4.331183156556572822E-02 2.915407359639444529E+00
        pair_coeff 13    20     6.877894405717501110E-03 3.969663348839890027E+00
        pair_coeff 14    20     2.533130481764387168E-02 3.451458661424102736E+00
        pair_coeff 15    20     5.268995854924014149E-02 3.108162818448523712E+00
        pair_coeff 16    20     7.657659860592054557E-02 2.982505691119483604E+00
        pair_coeff 17    20     9.243934043658488808E-02 2.967359751198966222E+00
        pair_coeff 18   20     5.693013587912872792E-02 3.063691980262590153E+00
        pair_coeff 19    20     5.830227959007599353E-02 2.979827888172235539E+00
        pair_coeff 20     20     2.829367882355780447E-02 2.373408142809749322E+00
        pair_coeff 1      21      0.000000000000000000E+00 0.000000000000000000E+00
        pair_coeff 2     21      0.000000000000000000E+00 0.000000000000000000E+00
        pair_coeff 3     21      0.000000000000000000E+00 0.000000000000000000E+00
        pair_coeff 4     21      0.000000000000000000E+00 0.000000000000000000E+00
        pair_coeff 5     21      0.000000000000000000E+00 0.000000000000000000E+00
        pair_coeff 6      21      0.000000000000000000E+00 0.000000000000000000E+00
        pair_coeff 7     21      0.000000000000000000E+00 0.000000000000000000E+00
        pair_coeff 8     21      0.000000000000000000E+00 0.000000000000000000E+00
        pair_coeff 9     21      0.000000000000000000E+00 0.000000000000000000E+00
        pair_coeff 10     21      0.000000000000000000E+00 0.000000000000000000E+00
        pair_coeff 11     21      0.000000000000000000E+00 0.000000000000000000E+00
        pair_coeff 12      21      0.000000000000000000E+00 0.000000000000000000E+00
        pair_coeff 13    21      0.000000000000000000E+00 0.000000000000000000E+00
        pair_coeff 14    21      0.000000000000000000E+00 0.000000000000000000E+00
        pair_coeff 15    21      0.000000000000000000E+00 0.000000000000000000E+00
        pair_coeff 16    21      0.000000000000000000E+00 0.000000000000000000E+00
        pair_coeff 17    21      0.000000000000000000E+00 0.000000000000000000E+00
        pair_coeff 18   21      0.000000000000000000E+00 0.000000000000000000E+00
        pair_coeff 19    21      0.000000000000000000E+00 0.000000000000000000E+00
        pair_coeff 20     21      0.000000000000000000E+00 0.000000000000000000E+00
        pair_coeff 21      21      0.000000000000000000E+00 0.000000000000000000E+00
        pair_coeff 1      22    0.000000000000000000E+00 0.000000000000000000E+00
        pair_coeff 2     22    0.000000000000000000E+00 0.000000000000000000E+00
        pair_coeff 3     22    0.000000000000000000E+00 0.000000000000000000E+00
        pair_coeff 4     22    0.000000000000000000E+00 0.000000000000000000E+00
        pair_coeff 5     22    0.000000000000000000E+00 0.000000000000000000E+00
        pair_coeff 6      22    0.000000000000000000E+00 0.000000000000000000E+00
        pair_coeff 7     22    0.000000000000000000E+00 0.000000000000000000E+00
        pair_coeff 8     22    0.000000000000000000E+00 0.000000000000000000E+00
        pair_coeff 9     22    0.000000000000000000E+00 0.000000000000000000E+00
        pair_coeff 10     22    0.000000000000000000E+00 0.000000000000000000E+00
        pair_coeff 11     22    0.000000000000000000E+00 0.000000000000000000E+00
        pair_coeff 12      22    0.000000000000000000E+00 0.000000000000000000E+00
        pair_coeff 13    22    0.000000000000000000E+00 0.000000000000000000E+00
        pair_coeff 14    22    0.000000000000000000E+00 0.000000000000000000E+00
        pair_coeff 15    22    0.000000000000000000E+00 0.000000000000000000E+00
        pair_coeff 16    22    0.000000000000000000E+00 0.000000000000000000E+00
        pair_coeff 17    22    0.000000000000000000E+00 0.000000000000000000E+00
        pair_coeff 18   22    0.000000000000000000E+00 0.000000000000000000E+00
        pair_coeff 19    22    0.000000000000000000E+00 0.000000000000000000E+00
        pair_coeff 20     22    0.000000000000000000E+00 0.000000000000000000E+00
        pair_coeff 21      22    0.000000000000000000E+00 0.000000000000000000E+00
        pair_coeff 22    22    0.000000000000000000E+00 0.000000000000000000E+00
        pair_coeff 1      23      3.731714874568097806E-01 3.021498329079459921E+00
        pair_coeff 2     23      4.333660288663451210E-01 2.947120929208018492E+00
        pair_coeff 3     23      3.392468067789179420E-01 3.069878160802191225E+00
        pair_coeff 4     23      3.392468067789179420E-01 3.069878160802191225E+00
        pair_coeff 5     23      2.660524812168876263E-01 3.235891839220214727E+00
        pair_coeff 6      23      2.639217367579247409E-01 3.220946106087509531E+00
        pair_coeff 7     23      2.639217367579247409E-01 3.220946106087509531E+00
        pair_coeff 8     23      2.639217367579247409E-01 3.220946106087509531E+00
        pair_coeff 9     23      2.639217367579247409E-01 3.220946106087509531E+00
        pair_coeff 10     23      2.639217367579247409E-01 3.220946106087509531E+00
        pair_coeff 11     23      2.639217367579247409E-01 3.220946106087509531E+00
        pair_coeff 12      23      1.737850588051431666E-01 3.441721286142719993E+00
        pair_coeff 13    23      2.759696924716207450E-02 4.686300458613273712E+00
        pair_coeff 14    23      1.016397168676915763E-01 4.074545090238809841E+00
        pair_coeff 15    23      2.114139996840987690E-01 3.669274586167817986E+00
        pair_coeff 16    23      3.072571214561132247E-01 3.520932774360979955E+00
        pair_coeff 17    23      3.709050306349177539E-01 3.503052561617904459E+00
        pair_coeff 18   23      2.284273523866607036E-01 3.616775497184223198E+00
        pair_coeff 19    23      2.339329629063890137E-01 3.517771551839822930E+00
        pair_coeff 20     23      1.135259918695059600E-01 2.801875799210098883E+00
        pair_coeff 21      23      0.000000000000000000E+00 0.000000000000000000E+00
        pair_coeff 22    23      0.000000000000000000E+00 0.000000000000000000E+00
        pair_coeff 23      23      4.555134350088204109E-01 3.307694050845144673E+00
        pair_coeff 1      24   2.223093289799977224E-01 2.528643669394098126E+00
        pair_coeff 2     24   8.188055467646591923E-02 2.986646248124879222E+00
        pair_coeff 3     24   2.047347528503646874E-01 2.563590501331129090E+00
        pair_coeff 4     24   2.047347528503646874E-01 2.563590501331129090E+00
        pair_coeff 5     24   1.790997547608397245E-01 2.653461953861128819E+00
        pair_coeff 6      24   5.583840364210079787E-01 2.182297559899140094E+00
        pair_coeff 7     24   5.583840364210079787E-01 2.182297559899140094E+00
        pair_coeff 8     24   5.583840364210079787E-01 2.182297559899140094E+00
        pair_coeff 9     24   1.469768559452463708E-01 2.726013321860754957E+00
        pair_coeff 10     24   5.583840364210079787E-01 2.182297559899140094E+00
        pair_coeff 11     24   5.583840364210079787E-01 2.182297559899140094E+00
        pair_coeff 12      24   3.676802214070164498E-01 2.331880049283297840E+00
        pair_coeff 13    24   5.838741162631456982E-02 3.175123618634094314E+00
        pair_coeff 14    24   2.150410044373349261E-01 2.760639115110234521E+00
        pair_coeff 15    24   4.472924585510560935E-01 2.486054939218036886E+00
        pair_coeff 16    24   6.500695009260647472E-01 2.385548453460561547E+00
        pair_coeff 17    24   7.847305442853571567E-01 2.373434017715752464E+00
        pair_coeff 18   24   4.832879194471943474E-01 2.450485069368524726E+00
        pair_coeff 19    24   4.949362401301840020E-01 2.383406620605556636E+00
        pair_coeff 20     24   2.401890134458197767E-01 1.898363561004745348E+00
        pair_coeff 21      24   0.000000000000000000E+00 0.000000000000000000E+00
        pair_coeff 22    24   0.000000000000000000E+00 0.000000000000000000E+00
        pair_coeff 23      24   9.637380899683938296E-01 2.241072162744267793E+00
        pair_coeff 24   24   2.038998270244088307E+00 1.518400541713947227E+00
        pair_coeff 1      25   1.222674138853568487E-01 2.793586526663335956E+00
        pair_coeff 2     25   4.503330433195999044E-02 3.299577089353393333E+00
        pair_coeff 3     25   1.126016118096603430E-01 2.832194971194489597E+00
        pair_coeff 4     25   1.126016118096603430E-01 2.832194971194489597E+00
        pair_coeff 5     25   9.850267617010251275E-02 2.931482855034457380E+00
        pair_coeff 6      25   5.583840364210079787E-01 2.182297559899140094E+00
        pair_coeff 7     25   5.583840364210079787E-01 2.182297559899140094E+00
        pair_coeff 8     25   5.583840364210079787E-01 2.182297559899140094E+00
        pair_coeff 9     25   8.083547442600935717E-02 3.011635913604119530E+00
        pair_coeff 10     25   5.583840364210079787E-01 2.182297559899140094E+00
        pair_coeff 11     25   5.583840364210079787E-01 2.182297559899140094E+00
        pair_coeff 12      25   3.676802214070164498E-01 2.331880049283297840E+00
        pair_coeff 13    25   5.838741162631456982E-02 3.175123618634094314E+00
        pair_coeff 14    25   2.150410044373349261E-01 2.760639115110234521E+00
        pair_coeff 15    25   4.472924585510560935E-01 2.486054939218036886E+00
        pair_coeff 16    25   6.500695009260647472E-01 2.385548453460561547E+00
        pair_coeff 17    25   7.847305442853571567E-01 2.373434017715752464E+00
        pair_coeff 18   25   4.832879194471943474E-01 2.450485069368524726E+00
        pair_coeff 19    25   4.949362401301840020E-01 2.383406620605556636E+00
        pair_coeff 20     25   2.401890134458197767E-01 1.898363561004745348E+00
        pair_coeff 21      25   0.000000000000000000E+00 0.000000000000000000E+00
        pair_coeff 22    25   0.000000000000000000E+00 0.000000000000000000E+00
        pair_coeff 23      25   9.637380899683938296E-01 2.241072162744267793E+00
        pair_coeff 24   25   2.038998270244088307E+00 1.518400541713947227E+00
        pair_coeff 25   25   2.038998270244088307E+00 1.518400541713947227E+00
        pair_coeff 1      26     0.000000000000000000E+00 0.000000000000000000E+00
        pair_coeff 2     26     0.000000000000000000E+00 0.000000000000000000E+00
        pair_coeff 3     26     0.000000000000000000E+00 0.000000000000000000E+00
        pair_coeff 4     26     0.000000000000000000E+00 0.000000000000000000E+00
        pair_coeff 5     26     0.000000000000000000E+00 0.000000000000000000E+00
        pair_coeff 6      26     0.000000000000000000E+00 0.000000000000000000E+00
        pair_coeff 7     26     0.000000000000000000E+00 0.000000000000000000E+00
        pair_coeff 8     26     0.000000000000000000E+00 0.000000000000000000E+00
        pair_coeff 9     26     0.000000000000000000E+00 0.000000000000000000E+00
        pair_coeff 10     26     0.000000000000000000E+00 0.000000000000000000E+00
        pair_coeff 11     26     0.000000000000000000E+00 0.000000000000000000E+00
        pair_coeff 12      26     0.000000000000000000E+00 0.000000000000000000E+00
        pair_coeff 13    26     0.000000000000000000E+00 0.000000000000000000E+00
        pair_coeff 14    26     0.000000000000000000E+00 0.000000000000000000E+00
        pair_coeff 15    26     0.000000000000000000E+00 0.000000000000000000E+00
        pair_coeff 16    26     0.000000000000000000E+00 0.000000000000000000E+00
        pair_coeff 17    26     0.000000000000000000E+00 0.000000000000000000E+00
        pair_coeff 18   26     0.000000000000000000E+00 0.000000000000000000E+00
        pair_coeff 19    26     0.000000000000000000E+00 0.000000000000000000E+00
        pair_coeff 20     26     0.000000000000000000E+00 0.000000000000000000E+00
        pair_coeff 21      26     0.000000000000000000E+00 0.000000000000000000E+00
        pair_coeff 22    26     0.000000000000000000E+00 0.000000000000000000E+00
        pair_coeff 23      26     0.000000000000000000E+00 0.000000000000000000E+00
        pair_coeff 24   26     0.000000000000000000E+00 0.000000000000000000E+00
        pair_coeff 25   26     0.000000000000000000E+00 0.000000000000000000E+00
        pair_coeff 26     26     0.000000000000000000E+00 0.000000000000000000E+00
        pair_coeff 1      27   5.148167869545027253E-01 2.198391984374735042E+00
        pair_coeff 2     27   1.896163524310913173E-01 2.596577466216851260E+00
        pair_coeff 3     27   4.741181493550025716E-01 2.228774610499382636E+00
        pair_coeff 4     27   4.741181493550025716E-01 2.228774610499382636E+00
        pair_coeff 5     27   4.147534460805777923E-01 2.306908466707524141E+00
        pair_coeff 6      27   4.114317946416216065E-01 2.296253463382908144E+00
        pair_coeff 7     27   4.114317946416216065E-01 2.296253463382908144E+00
        pair_coeff 8     27   4.114317946416216065E-01 2.296253463382908144E+00
        pair_coeff 9     27   3.403642711782671748E-01 2.369984315549452436E+00
        pair_coeff 10     27   4.114317946416216065E-01 2.296253463382908144E+00
        pair_coeff 11     27   4.114317946416216065E-01 2.296253463382908144E+00
        pair_coeff 12      27   2.709162932331031781E-01 2.453646898458591963E+00
        pair_coeff 13    27   4.302135444964862165E-02 3.340923226938115054E+00
        pair_coeff 14    27   1.584477717956855047E-01 2.904795040652100369E+00
        pair_coeff 15    27   3.295766478763905716E-01 2.615872541507785698E+00
        pair_coeff 16    27   4.789880153488779158E-01 2.510117776321816319E+00
        pair_coeff 17    27   5.782097536577677221E-01 2.497370745143705939E+00
        pair_coeff 18   27   3.560990341007065352E-01 2.578445272956105150E+00
        pair_coeff 19    27   3.646818179386565606E-01 2.507864100562072096E+00
        pair_coeff 20     27   1.769774750163259913E-01 1.997492909224773072E+00
        pair_coeff 21      27   0.000000000000000000E+00 0.000000000000000000E+00
        pair_coeff 22    27   0.000000000000000000E+00 0.000000000000000000E+00
        pair_coeff 23      27   7.101071414248384395E-01 2.358097177009347067E+00
        pair_coeff 24   27   1.502386642309327724E+00 1.597688860942628741E+00
        pair_coeff 25   27   1.502386642309327724E+00 1.597688860942628741E+00
        pair_coeff 26     27   0.000000000000000000E+00 0.000000000000000000E+00
        pair_coeff 27   27   1.106997321149905122E+00 1.681117482676084629E+00
        pair_coeff 1      28   1.337556733810085774E-01 2.357481108494590138E+00
        pair_coeff 2     28   4.926463850082780926E-02 2.784481733402069281E+00
        pair_coeff 3     28   1.231816714918823885E-01 2.390062407746226469E+00
        pair_coeff 4     28   1.231816714918823885E-01 2.390062407746226469E+00
        pair_coeff 5     28   1.077579983274792180E-01 2.473850508891853206E+00
        pair_coeff 6      28   1.068949928152020112E-01 2.462424444192170547E+00
        pair_coeff 7     28   1.068949928152020112E-01 2.462424444192170547E+00
        pair_coeff 8     28   1.068949928152020112E-01 2.462424444192170547E+00
        pair_coeff 9     28   8.843078438758973647E-02 2.541490912925349122E+00
        pair_coeff 10     28   1.068949928152020112E-01 2.462424444192170547E+00
        pair_coeff 11     28   1.068949928152020112E-01 2.462424444192170547E+00
        pair_coeff 12      28   7.038735361689542336E-02 2.631207833337182223E+00
        pair_coeff 13    28   1.117747202498341370E-02 3.582692917558796708E+00
        pair_coeff 14    28   4.116666151782900213E-02 3.115003821456256539E+00
        pair_coeff 15    28   8.562802842568927042E-02 2.805173118654866293E+00
        pair_coeff 16    28   1.244469220077783211E-01 2.691765290191502125E+00
        pair_coeff 17    28   1.502259384614757498E-01 2.678095805674920893E+00
        pair_coeff 18   28   9.251886749504166507E-02 2.765037383453741171E+00
        pair_coeff 19    28   9.474877930215237776E-02 2.689348524634663118E+00
        pair_coeff 20     28   4.598090416614816073E-02 2.142043744391038285E+00
        pair_coeff 21      28   0.000000000000000000E+00 0.000000000000000000E+00
        pair_coeff 22    28   0.000000000000000000E+00 0.000000000000000000E+00
        pair_coeff 23      28   1.844944867392919463E-01 2.528743548150760745E+00
        pair_coeff 24   28   3.903383535907812840E-01 1.713307423651182493E+00
        pair_coeff 25   28   3.903383535907812840E-01 1.713307423651182493E+00
        pair_coeff 26     28   0.000000000000000000E+00 0.000000000000000000E+00
        pair_coeff 27   28   2.876113908353647441E-01 1.802773452022052636E+00
        pair_coeff 28   28   7.472494337414144205E-02 1.933233193281657103E+00
        pair_coeff 1      29   1.703146428752259911E-01 2.843803441534021204E+00
        pair_coeff 2     29   6.272996950749848422E-02 3.358889582531555007E+00
        pair_coeff 3     29   1.568504861035088516E-01 2.883105903219756350E+00
        pair_coeff 4     29   1.568504861035088516E-01 2.883105903219756350E+00
        pair_coeff 5     29   1.372111144012202466E-01 2.984178564858046556E+00
        pair_coeff 6      29   1.361122266164445094E-01 2.970395429120896935E+00
        pair_coeff 7     29   1.361122266164445094E-01 2.970395429120896935E+00
        pair_coeff 8     29   1.361122266164445094E-01 2.970395429120896935E+00
        pair_coeff 9     29   1.126012608021971506E-01 3.065772437692955599E+00
        pair_coeff 10     29   1.361122266164445094E-01 2.970395429120896935E+00
        pair_coeff 11     29   1.361122266164445094E-01 2.970395429120896935E+00
        pair_coeff 12      29   8.962608232733035307E-02 3.173996968575379718E+00
        pair_coeff 13    29   1.423257128510838597E-02 4.321762924080988277E+00
        pair_coeff 14    29   5.241860085293292143E-02 3.757594729361648955E+00
        pair_coeff 15    29   1.090324373747397629E-01 3.383849372190097071E+00
        pair_coeff 16    29   1.584615631091823018E-01 3.247046760402909182E+00
        pair_coeff 17    29   1.912866677944946026E-01 3.230557412101377146E+00
        pair_coeff 18   29   1.178067253398141917E-01 3.335434077797200025E+00
        pair_coeff 19    29   1.206461311270324160E-01 3.244131442785662678E+00
        pair_coeff 20     29   5.854870357409030363E-02 2.583923727009426852E+00
        pair_coeff 21      29   0.000000000000000000E+00 0.000000000000000000E+00
        pair_coeff 22    29   0.000000000000000000E+00 0.000000000000000000E+00
        pair_coeff 23      29   2.349217182881164212E-01 3.050395432258705242E+00
        pair_coeff 24   29   4.970281679412999476E-01 2.066743835286263042E+00
        pair_coeff 25   29   4.970281679412999476E-01 2.066743835286263042E+00
        pair_coeff 26     29   0.000000000000000000E+00 0.000000000000000000E+00
        pair_coeff 27   29   3.662232044351344529E-01 2.174665717868782711E+00
        pair_coeff 28   29   9.514925029300028148E-02 2.332037863859216742E+00
        pair_coeff 29   29   1.211560614504652439E-01 2.813111536348800179E+00
        pair_coeff 1      30     2.698242160009388657E-01 3.067797545829641592E+00
        pair_coeff 2     30     3.133482940435941000E-01 2.992280441419951309E+00
        pair_coeff 3     30     2.452947418190353224E-01 3.116918714488987607E+00
        pair_coeff 4     30     2.452947418190353224E-01 3.116918714488987607E+00
        pair_coeff 5     30     1.923710802470132430E-01 3.285476264338809127E+00
        pair_coeff 6      30     1.908304307803131428E-01 3.270301513790756509E+00
        pair_coeff 7     30     1.908304307803131428E-01 3.270301513790756509E+00
        pair_coeff 8     30     1.908304307803131428E-01 3.270301513790756509E+00
        pair_coeff 9     30     1.908304307803131428E-01 3.270301513790756509E+00
        pair_coeff 10     30     1.908304307803131428E-01 3.270301513790756509E+00
        pair_coeff 11     30     1.908304307803131428E-01 3.270301513790756509E+00
        pair_coeff 12      30     1.256564845410435005E-01 3.494459690227617266E+00
        pair_coeff 13    30     1.995417881967565324E-02 4.758109878000214898E+00
        pair_coeff 14    30     7.349129780864194217E-02 4.136980420576664486E+00
        pair_coeff 15    30     1.528643495920544437E-01 3.725499849556486165E+00
        pair_coeff 16    30     2.221643793651205678E-01 3.574884956996347896E+00
        pair_coeff 17    30     2.681854387748578428E-01 3.556730761031980492E+00
        pair_coeff 18   30     1.651659715241092508E-01 3.672196303169541487E+00
        pair_coeff 19    30     1.691468411565035523E-01 3.571675294227750541E+00
        pair_coeff 20     30     8.208575087201354370E-02 2.844809681941795620E+00
        pair_coeff 21      30     0.000000000000000000E+00 0.000000000000000000E+00
        pair_coeff 22    30     0.000000000000000000E+00 0.000000000000000000E+00
        pair_coeff 23      30     3.293621287006147091E-01 3.358378720212484847E+00
        pair_coeff 24   30     6.968374682861073754E-01 2.275412703269175108E+00
        pair_coeff 25   30     6.968374682861073754E-01 2.275412703269175108E+00
        pair_coeff 26     30     0.000000000000000000E+00 0.000000000000000000E+00
        pair_coeff 27   30     5.134478628509925313E-01 2.394230922729341682E+00
        pair_coeff 28   30     1.334000102210023686E-01 2.567492153276457856E+00
        pair_coeff 29   30     1.698617675500217472E-01 3.097137446951440776E+00
        pair_coeff 30     30     2.381475572067369983E-01 3.409840044152281813E+00
        pair_coeff 1      31      1.825200170718821457E-01 2.848641691863192271E+00
        pair_coeff 2     31      2.119614644894694810E-01 2.778519342243783719E+00
        pair_coeff 3     31      1.057395499456308119E-01 3.119966996841143647E+00
        pair_coeff 4     31      1.659272882471655997E-01 2.894253765967063963E+00
        pair_coeff 5     31      9.249981842420902656E-02 3.229343266454477224E+00
        pair_coeff 6      31      7.192433081344887236E-02 3.347591749745056244E+00
        pair_coeff 7     31      6.211065545356941192E-02 3.430447483334676306E+00
        pair_coeff 8     31      4.555051328896060625E-02 3.612403446600987778E+00
        pair_coeff 9     31      7.590927472598106573E-02 3.317640470558243848E+00
        pair_coeff 10     31      6.506004412035899798E-02 3.404024952464428821E+00
        pair_coeff 11     31      7.043799131579189798E-02 3.359262692221449242E+00
        pair_coeff 12      31      8.499913033581890653E-02 3.244824150032262100E+00
        pair_coeff 13    31      1.349781392048931411E-02 4.418202300006069727E+00
        pair_coeff 14    31      4.971248737222838665E-02 3.841444791719262675E+00
        pair_coeff 15    31      1.034036311148842646E-01 3.459359372949309286E+00
        pair_coeff 16    31      1.502809752047785663E-01 3.319504035055336644E+00
        pair_coeff 17    31      1.814114818495274339E-01 3.302646729860391872E+00
        pair_coeff 18   31      1.117249459261637351E-01 3.409863699817805127E+00
        pair_coeff 19    31      1.144177672156473091E-01 3.316523662640645131E+00
        pair_coeff 20     31      5.552612316481649046E-02 2.641583528356301613E+00
        pair_coeff 21      31      0.000000000000000000E+00 0.000000000000000000E+00
        pair_coeff 22    31      0.000000000000000000E+00 0.000000000000000000E+00
        pair_coeff 23      31      2.227938701879095817E-01 3.118464467275081642E+00
        pair_coeff 24   31      1.066111026131294215E-01 2.706851401515291577E+00
        pair_coeff 25   31      5.863480344158913254E-02 2.990466271099721407E+00
        pair_coeff 26     31      0.000000000000000000E+00 0.000000000000000000E+00
        pair_coeff 27   31      2.468865591596759723E-01 2.353325024008075417E+00
        pair_coeff 28   31      6.414413594489304371E-02 2.523626052896363436E+00
        pair_coeff 29   31      8.167642784672754508E-02 3.044222254215389167E+00
        pair_coeff 30     31      1.610926433928725754E-01 3.166249521765611696E+00
        pair_coeff 31      31      1.089695819670959825E-01 2.940060502624928240E+00
        pair_coeff 1      32     3.028875918701723902E-01 3.094659625059138719E+00
        pair_coeff 2     32     3.517449679133345941E-01 3.018481281955716966E+00
        pair_coeff 3     32     2.468521531134249269E-01 3.201992541656678348E+00
        pair_coeff 4     32     2.753523562456112184E-01 3.144210905779225573E+00
        pair_coeff 5     32     2.159436024870309834E-01 3.314244369926244271E+00
        pair_coeff 6      32     1.679095090878598429E-01 3.435601666955987898E+00
        pair_coeff 7     32     1.449991894034274031E-01 3.520635720603371155E+00
        pair_coeff 8     32     1.063390404686152813E-01 3.707375400182857383E+00
        pair_coeff 9     32     1.772124802594848836E-01 3.404862953159864425E+00
        pair_coeff 10     32     1.518846257717465786E-01 3.493518527740791413E+00
        pair_coeff 11     32     1.644396049182014208E-01 3.447579444541888805E+00
        pair_coeff 12      32     1.410540186851716171E-01 3.525057684932574986E+00
        pair_coeff 13    32     2.239929855079176788E-02 4.799772576602748586E+00
        pair_coeff 14    32     8.249668078937649751E-02 4.173204419770964790E+00
        pair_coeff 15    32     1.715958464253498628E-01 3.758120865328633986E+00
        pair_coeff 16    32     2.493876749186909880E-01 3.606187166974876845E+00
        pair_coeff 17    32     3.010480042491057717E-01 3.587874010243685685E+00
        pair_coeff 18   32     1.854048688263800759E-01 3.704350585376364968E+00
        pair_coeff 19    32     1.898735411878733903E-01 3.602949399934630925E+00
        pair_coeff 20     32     9.214426998795607893E-02 2.869719247168172060E+00
        pair_coeff 21      32     0.000000000000000000E+00 0.000000000000000000E+00
        pair_coeff 22    32     0.000000000000000000E+00 0.000000000000000000E+00
        pair_coeff 23      32     3.697210854307304562E-01 3.387785170252723521E+00
        pair_coeff 24   32     2.488868189752940496E-01 2.778015923822349631E+00
        pair_coeff 25   32     1.368847085539993957E-01 3.069087174906648396E+00
        pair_coeff 26     32     0.000000000000000000E+00 0.000000000000000000E+00
        pair_coeff 27   32     5.763640826414281326E-01 2.415195155140145822E+00
        pair_coeff 28   32     1.497464106452001675E-01 2.589973486093279487E+00
        pair_coeff 29   32     1.906760723205734864E-01 3.124256430600719447E+00
        pair_coeff 30     32     2.673293790349109966E-01 3.439697096991523484E+00
        pair_coeff 31      32     1.808324084043584357E-01 3.193973660742658982E+00
        pair_coeff 32     32     3.000870457518571288E-01 3.469815582505817453E+00
        pair_coeff 1      33     4.619134934213758870E-01 3.174341374980300667E+00
        pair_coeff 2     33     5.364225913614864005E-01 3.096201580725539859E+00
        pair_coeff 3     33     3.764576148503470665E-01 3.284437915256962270E+00
        pair_coeff 4     33     4.199213576557962457E-01 3.225168509344078061E+00
        pair_coeff 5     33     3.293210632726623621E-01 3.399580020064839836E+00
        pair_coeff 6      33     2.560674983169540231E-01 3.524062042578035125E+00
        pair_coeff 7     33     2.211285107688185092E-01 3.611285565510714335E+00
        pair_coeff 8     33     1.621705180019040737E-01 3.802833445749207453E+00
        pair_coeff 9     33     2.702548339108319375E-01 3.492531863870627973E+00
        pair_coeff 10     33     2.316290266433154443E-01 3.583470155189018680E+00
        pair_coeff 11     33     2.507757808618153450E-01 3.536348225738003670E+00
        pair_coeff 12      33     2.151119962679723108E-01 3.615821387226038297E+00
        pair_coeff 13    33     3.415966358971698341E-02 4.923357824889950329E+00
        pair_coeff 14    33     1.258101389489161837E-01 4.280656699257024300E+00
        pair_coeff 15    33     2.616892834385430300E-01 3.854885512574417916E+00
        pair_coeff 16    33     3.803243686103310317E-01 3.699039803071263677E+00
        pair_coeff 17    33     4.591080620755257913E-01 3.680255116494558720E+00
        pair_coeff 18   33     2.827484946746637862E-01 3.799730747567426459E+00
        pair_coeff 19    33     2.895633663196458540E-01 3.695718669530379863E+00
        pair_coeff 20     33     1.405230283158743487E-01 2.943609199247290142E+00
        pair_coeff 21      33     0.000000000000000000E+00 0.000000000000000000E+00
        pair_coeff 22    33     0.000000000000000000E+00 0.000000000000000000E+00
        pair_coeff 23      33     5.638367590708479593E-01 3.475014359704387434E+00
        pair_coeff 24   33     3.795605468998184961E-01 2.849544685281790724E+00
        pair_coeff 25   33     2.087536618246373654E-01 3.148110481630561619E+00
        pair_coeff 26     33     0.000000000000000000E+00 0.000000000000000000E+00
        pair_coeff 27   33     8.789740948174059598E-01 2.477381954232469763E+00
        pair_coeff 28   33     2.283681785752544047E-01 2.656660503285802832E+00
        pair_coeff 29   33     2.907872525699738975E-01 3.204700243411942928E+00
        pair_coeff 30     33     4.076860547562866088E-01 3.528262922346804054E+00
        pair_coeff 31      33     2.757753428396018114E-01 3.276212563021035251E+00
        pair_coeff 32     33     4.576425689077261438E-01 3.559156903043612541E+00
        pair_coeff 33     33     6.979198997135206417E-01 3.650798597006346569E+00
        pair_coeff 1      34   2.726298193589453134E-01 3.152721713066568121E+00
        pair_coeff 2     34   3.166064561130476629E-01 3.075114109819085950E+00
        pair_coeff 3     34   2.478452903263138885E-01 3.203202676262477233E+00
        pair_coeff 4     34   2.478452903263138885E-01 3.203202676262477233E+00
        pair_coeff 5     34   1.943713341779741421E-01 3.376426312885838499E+00
        pair_coeff 6      34   1.928146652027906693E-01 3.360831487989961452E+00
        pair_coeff 7     34   1.928146652027906693E-01 3.360831487989961452E+00
        pair_coeff 8     34   1.928146652027906693E-01 3.360831487989961452E+00
        pair_coeff 9     34   1.928146652027906693E-01 3.360831487989961452E+00
        pair_coeff 10     34   1.928146652027906693E-01 3.360831487989961452E+00
        pair_coeff 11     34   1.928146652027906693E-01 3.360831487989961452E+00
        pair_coeff 12      34   1.269630472365963769E-01 3.591194913038851411E+00
        pair_coeff 13    34   2.016166023825427880E-02 4.889826040157090326E+00
        pair_coeff 14    34   7.425545246819055534E-02 4.251502194534839241E+00
        pair_coeff 15    34   1.544538167603142498E-01 3.828630831160853454E+00
        pair_coeff 16    34   2.244744208358758208E-01 3.673846548628572073E+00
        pair_coeff 17    34   2.709740023024271305E-01 3.655189799952984320E+00
        pair_coeff 18   34   1.668833496423683671E-01 3.773851711754483418E+00
        pair_coeff 19    34   1.709056119317078348E-01 3.670548034515104696E+00
        pair_coeff 20     34   8.293926973590307061E-02 2.923560997691061925E+00
        pair_coeff 21      34   0.000000000000000000E+00 0.000000000000000000E+00
        pair_coeff 22    34   0.000000000000000000E+00 0.000000000000000000E+00
        pair_coeff 23      34   3.327868009112045500E-01 3.451346887707100741E+00
        pair_coeff 24   34   7.040831098003642596E-01 2.338401712830169732E+00
        pair_coeff 25   34   7.040831098003642596E-01 2.338401712830169732E+00
        pair_coeff 26     34   0.000000000000000000E+00 0.000000000000000000E+00
        pair_coeff 27   34   5.187866388494037917E-01 2.460509112293086442E+00
        pair_coeff 28   34   1.347870892689141398E-01 2.638566639042558393E+00
        pair_coeff 29   34   1.716279720534513720E-01 3.182873814678249147E+00
        pair_coeff 30     34   2.406237900523386375E-01 3.504232787426495133E+00
        pair_coeff 31      34   1.627676674805978718E-01 3.253899081387234382E+00
        pair_coeff 32     34   2.701090413448035132E-01 3.534916356784718605E+00
        pair_coeff 33     34   4.119251307784054794E-01 3.625933901607006682E+00
        pair_coeff 34   34   2.431257705023985027E-01 3.601238553560273559E+00
        pair_coeff 1      35   1.774056427875315700E-01 3.022113465134438570E+00
        pair_coeff 2     35   1.088910246333028992E-01 3.278234300527326894E+00
        pair_coeff 3     35   1.633809098206280841E-01 3.063880240200058669E+00
        pair_coeff 4     35   1.633809098206280841E-01 3.063880240200058669E+00
        pair_coeff 5     35   1.429238586712428538E-01 3.171290283817308264E+00
        pair_coeff 6      35   1.111321413093139809E-01 3.287413047857584036E+00
        pair_coeff 7     35   9.596877802844315519E-02 3.368779307561466041E+00
        pair_coeff 8     35   7.038127462972523785E-02 3.547464300384358893E+00
        pair_coeff 9     35   1.172893810776735740E-01 3.258000194272241412E+00
        pair_coeff 10     35   1.005259546387323316E-01 3.342831766990879583E+00
        pair_coeff 11     35   1.088355597600791647E-01 3.298874185130554082E+00
        pair_coeff 12      35   9.335763782481623640E-02 3.373010538257620983E+00
        pair_coeff 13    35   1.482514019187304057E-02 4.592742851080654276E+00
        pair_coeff 14    35   5.460103383565441393E-02 3.993200606718578349E+00
        pair_coeff 15    35   1.135719707396375816E-01 3.596020949382504384E+00
        pair_coeff 16    35   1.650590635421556873E-01 3.450640643166755339E+00
        pair_coeff 17    35   1.992508317774452642E-01 3.433117392155260461E+00
        pair_coeff 18   35   1.227115735956721548E-01 3.544569955630175073E+00
        pair_coeff 19    35   1.256691972052001172E-01 3.447542531497872709E+00
        pair_coeff 20     35   6.098636157519143897E-02 2.745938968293540228E+00
        pair_coeff 21      35   0.000000000000000000E+00 0.000000000000000000E+00
        pair_coeff 22    35   0.000000000000000000E+00 0.000000000000000000E+00
        pair_coeff 23      35   2.447026147257768958E-01 3.241659031413521852E+00
        pair_coeff 24   35   1.647275683589491391E-01 2.658191106078167110E+00
        pair_coeff 25   35   9.059814930521523091E-02 2.936707512061449421E+00
        pair_coeff 26     35   0.000000000000000000E+00 0.000000000000000000E+00
        pair_coeff 27   35   3.814707995138282293E-01 2.311019971405739337E+00
        pair_coeff 28   35   9.911076125937028081E-02 2.478259547281012942E+00
        pair_coeff 29   35   1.262003583272166274E-01 2.989497139204101650E+00
        pair_coeff 30     35   1.769339121317631824E-01 3.291331828740973631E+00
        pair_coeff 31      35   8.507700182510755105E-02 3.235098787405478848E+00
        pair_coeff 32     35   1.986148143410966516E-01 3.320151206497628849E+00
        pair_coeff 33     35   3.028940940468037857E-01 3.405638946730622507E+00
        pair_coeff 34   35   1.787736520386526418E-01 3.382443973685540506E+00
        pair_coeff 35   35   1.314546730163348442E-01 3.176942339410103067E+00
        pair_coeff 1      36    3.493138043396110115E-02 2.995467182793318806E+00
        pair_coeff 2     36    1.286586045970535865E-02 3.538023538529870837E+00
        pair_coeff 3     36    3.216989396118666994E-02 3.036865695947625898E+00
        pair_coeff 4     36    3.216989396118666994E-02 3.036865695947625898E+00
        pair_coeff 5     36    2.814187644704253116E-02 3.143328694266439349E+00
        pair_coeff 6      36    2.791649554839393046E-02 3.128810485949500286E+00
        pair_coeff 7     36    2.791649554839393046E-02 3.128810485949500286E+00
        pair_coeff 8     36    2.791649554839393046E-02 3.128810485949500286E+00
        pair_coeff 9     36    2.309441755578705083E-02 3.229274074606136136E+00
        pair_coeff 10     36    2.791649554839393046E-02 3.128810485949500286E+00
        pair_coeff 11     36    2.791649554839393046E-02 3.128810485949500286E+00
        pair_coeff 12      36    1.838222906573640236E-02 3.343270360670348218E+00
        pair_coeff 13    36    2.919087599988792053E-03 4.552248169414355949E+00
        pair_coeff 14    36    1.075100800082823098E-02 3.957992150107363383E+00
        pair_coeff 15    36    2.236245507304574984E-02 3.564314466278117433E+00
        pair_coeff 16    36    3.250032440946476475E-02 3.420215993034873669E+00
        pair_coeff 17    36    3.923272392714612089E-02 3.402847246312967755E+00
        pair_coeff 18   36    2.416205366169842800E-02 3.513317121179974301E+00
        pair_coeff 19    36    2.474441324091778208E-02 3.417145197732238238E+00
        pair_coeff 20     36    1.200828656852534135E-02 2.721727744630110912E+00
        pair_coeff 21      36    0.000000000000000000E+00 0.000000000000000000E+00
        pair_coeff 22    36    0.000000000000000000E+00 0.000000000000000000E+00
        pair_coeff 23      36    4.818223363057468761E-02 3.213076993445320717E+00
        pair_coeff 24   36    1.019400312718368312E-01 2.176965975714864943E+00
        pair_coeff 25   36    1.019400312718368312E-01 2.176965975714864943E+00
        pair_coeff 26     36    0.000000000000000000E+00 0.000000000000000000E+00
        pair_coeff 27   36    7.511205062526553344E-02 2.290643472851174423E+00
        pair_coeff 28   36    1.951502585967282086E-02 2.456408480346143008E+00
        pair_coeff 29   36    2.484899949270408595E-02 2.963138438331942570E+00
        pair_coeff 30     36    3.483849611111720229E-02 3.262311820657642247E+00
        pair_coeff 31      36    1.675176206482257082E-02 3.206574591777111127E+00
        pair_coeff 32     36    3.910749134331937410E-02 3.290877095024250742E+00
        pair_coeff 33     36    5.964020458481446990E-02 3.375611081141380421E+00
        pair_coeff 34   36    3.520074306999246977E-02 3.352620620536940876E+00
        pair_coeff 35   36    2.588358025598428910E-02 3.148930915109191542E+00
        pair_coeff 36    36    5.096507499468877836E-03 3.121166470390387637E+00
        pair_coeff 1      37    2.226461306623754022E-01 3.362204455973978323E+00
        pair_coeff 2     37    2.585601331580250628E-01 3.279440211868734245E+00
        pair_coeff 3     37    1.814556892113898812E-01 3.478816702288478169E+00
        pair_coeff 4     37    2.024055733294321535E-01 3.416039629150127599E+00
        pair_coeff 5     37    1.587354808368636461E-01 3.600773118478173718E+00
        pair_coeff 6      37    1.234266556414602978E-01 3.732622205057627429E+00
        pair_coeff 7     37    1.065857741828254851E-01 3.825007768809989717E+00
        pair_coeff 8     37    7.816753321752194228E-02 4.027891788010422580E+00
        pair_coeff 9     37    1.302650689360985159E-01 3.699226015163477044E+00
        pair_coeff 10     37    1.116471098283786517E-01 3.795546193799352430E+00
        pair_coeff 11     37    1.208760039875793058E-01 3.745635506050692953E+00
        pair_coeff 12      37    1.036857643481583074E-01 3.829812028396864854E+00
        pair_coeff 13    37    1.646524085418059336E-02 5.214730762000061581E+00
        pair_coeff 14    37    6.064152927768903800E-02 4.533993458352017392E+00
        pair_coeff 15    37    1.261364026450952358E-01 4.083024387295987268E+00
        pair_coeff 16    37    1.833194965587523484E-01 3.917955455811204413E+00
        pair_coeff 17    37    2.212938895114058557E-01 3.898059058590013226E+00
        pair_coeff 18   37    1.362871169309986807E-01 4.024605466717271263E+00
        pair_coeff 19    37    1.395719415233208360E-01 3.914437771771909880E+00
        pair_coeff 20     37    6.773326384502838249E-02 3.117817146058102118E+00
        pair_coeff 21      37    0.000000000000000000E+00 0.000000000000000000E+00
        pair_coeff 22    37    0.000000000000000000E+00 0.000000000000000000E+00
        pair_coeff 23      37    2.717739891131936147E-01 3.680671794426697563E+00
        pair_coeff 24   37    1.829513281662208113E-01 3.018185729444698318E+00
        pair_coeff 25   37    1.006209944693221142E-01 3.334421172424263169E+00
        pair_coeff 26     37    0.000000000000000000E+00 0.000000000000000000E+00
        pair_coeff 27   37    4.236727957739777617E-01 2.623997756297280493E+00
        pair_coeff 28   37    1.100753540442943462E-01 2.813886323808834078E+00
        pair_coeff 29   37    1.401618648355585917E-01 3.394360015399224828E+00
        pair_coeff 30     37    1.965080559655630332E-01 3.737071700247052153E+00
        pair_coeff 31      37    1.329259999757477217E-01 3.470104559304247438E+00
        pair_coeff 32     37    2.205875096632962662E-01 3.769794040818323477E+00
        pair_coeff 33     37    3.364031737469428962E-01 3.866859250698725603E+00
        pair_coeff 34   37    1.985513257278677390E-01 3.840523019086392154E+00
        pair_coeff 35   37    1.459974627294264860E-01 3.607190623033505794E+00
        pair_coeff 36    37    2.874707271347901050E-02 3.575385655778474892E+00
        pair_coeff 37    37    1.621491167589119986E-01 4.095706752209074430E+00
        pair_coeff 1      38   1.763627633860331279E-01 3.063392634298282680E+00
        pair_coeff 2     38   2.048110131065301875E-01 2.987983961478049899E+00
        pair_coeff 3     38   1.603297848963937400E-01 3.112443272096635738E+00
        pair_coeff 4     38   1.603297848963937400E-01 3.112443272096635738E+00
        pair_coeff 5     38   1.257377703556508686E-01 3.280758797795926274E+00
        pair_coeff 6      38   1.247307695705341529E-01 3.265605835984801697E+00
        pair_coeff 7     38   1.247307695705341529E-01 3.265605835984801697E+00
        pair_coeff 8     38   1.247307695705341529E-01 3.265605835984801697E+00
        pair_coeff 9     38   1.247307695705341529E-01 3.265605835984801697E+00
        pair_coeff 10     38   1.247307695705341529E-01 3.265605835984801697E+00
        pair_coeff 11     38   1.247307695705341529E-01 3.265605835984801697E+00
        pair_coeff 12      38   8.213171219204309925E-02 3.489442153850004225E+00
        pair_coeff 13    38   1.304246953774084068E-02 4.751277923558641980E+00
        pair_coeff 14    38   4.803545270493036340E-02 4.131040317787165073E+00
        pair_coeff 15    38   9.991534309570471173E-02 3.720150573079720857E+00
        pair_coeff 16    38   1.452112951590650569E-01 3.569751941621275737E+00
        pair_coeff 17    38   1.752916242405209712E-01 3.551623812444546502E+00
        pair_coeff 18   38   1.079559410458155871E-01 3.666923562840495698E+00
        pair_coeff 19    38   1.105579208808877417E-01 3.566546887462056503E+00
        pair_coeff 20     38   5.365296737619508483E-02 2.840724948583317921E+00
        pair_coeff 21      38   0.000000000000000000E+00 0.000000000000000000E+00
        pair_coeff 22    38   0.000000000000000000E+00 0.000000000000000000E+00
        pair_coeff 23      38   2.152779911056781903E-01 3.353556576335538608E+00
        pair_coeff 24   38   4.554675757398939928E-01 2.272145541239902311E+00
        pair_coeff 25   38   4.554675757398939928E-01 2.272145541239902311E+00
        pair_coeff 26     38   0.000000000000000000E+00 0.000000000000000000E+00
        pair_coeff 27   38   3.356002855827399101E-01 2.390793155000958237E+00
        pair_coeff 28   38   8.719304288914962731E-02 2.563805607595497360E+00
        pair_coeff 29   38   1.110252117573227587E-01 3.092690407585096501E+00
        pair_coeff 30     38   1.556582352210648112E-01 3.404944009291379192E+00
        pair_coeff 31      38   1.052935283978697484E-01 3.161703247501671754E+00
        pair_coeff 32     38   1.747320856505523434E-01 3.434758191740909350E+00
        pair_coeff 33     38   2.664721509299896041E-01 3.523196849439405476E+00
        pair_coeff 34   38   1.572767529134725395E-01 3.499201218301315031E+00
        pair_coeff 35   38   1.156477136957594076E-01 3.286605954458409862E+00
        pair_coeff 36    38   2.277117131083897586E-02 3.257627614890140855E+00
        pair_coeff 37    38   1.284417844007869070E-01 3.731705808274059954E+00
        pair_coeff 38   38   1.017414853056947954E-01 3.400055004425153182E+00
        pair_coeff 1      39  3.025968882784489944E-01 3.081336470273898787E+00
        pair_coeff 2     39  3.514073722894541785E-01 3.005486090817345968E+00
        pair_coeff 3     39  2.750880802531354141E-01 3.130674422401240609E+00
        pair_coeff 4     39  2.750880802531354141E-01 3.130674422401240609E+00
        pair_coeff 5     39  2.157363454631790467E-01 3.299975857040665872E+00
        pair_coeff 6      39  2.140085697228813477E-01 3.284734136688360451E+00
        pair_coeff 7     39  2.140085697228813477E-01 3.284734136688360451E+00
        pair_coeff 8     39  2.140085697228813477E-01 3.284734136688360451E+00
        pair_coeff 9     39  2.140085697228813477E-01 3.284734136688360451E+00
        pair_coeff 10     39  2.140085697228813477E-01 3.284734136688360451E+00
        pair_coeff 11     39  2.140085697228813477E-01 3.284734136688360451E+00
        pair_coeff 12      39  1.409186387258750672E-01 3.509881576780662371E+00
        pair_coeff 13    39  2.237780028966923282E-02 4.779108555120642698E+00
        pair_coeff 14    39  8.241750263201898241E-02 4.155237904815708205E+00
        pair_coeff 15    39  1.714311532183001030E-01 3.741941371601773980E+00
        pair_coeff 16    39  2.491483191485096838E-01 3.590661779490871286E+00
        pair_coeff 17    39  3.007590662454852626E-01 3.572427464716889212E+00
        pair_coeff 18   39  1.852269220806647965E-01 3.688402583913419353E+00
        pair_coeff 19    39  1.896913055272583803E-01 3.587437951712664219E+00
        pair_coeff 20     39  9.205583232672064076E-02 2.857364507599851500E+00
        pair_coeff 21      39  0.000000000000000000E+00 0.000000000000000000E+00
        pair_coeff 22    39  0.000000000000000000E+00 0.000000000000000000E+00
        pair_coeff 23      39  3.693662367992399664E-01 3.373200048891741964E+00
        pair_coeff 24   39  7.814748900761182560E-01 2.285454643849949008E+00
        pair_coeff 25   39  7.814748900761182560E-01 2.285454643849949008E+00
        pair_coeff 26     39  0.000000000000000000E+00 0.000000000000000000E+00
        pair_coeff 27   39  5.758109034638668744E-01 2.404797236536131866E+00
        pair_coeff 28   39  1.496026879553617739E-01 2.578823110340977554E+00
        pair_coeff 29   39  1.904930664115593308E-01 3.110805855398001363E+00
        pair_coeff 30     39  2.670728032862023649E-01 3.424888483964596109E+00
        pair_coeff 31      39  1.806588501866098206E-01 3.180222938331227489E+00
        pair_coeff 32     39  2.997990300510781636E-01 3.454877303120381882E+00
        pair_coeff 33     39  4.572033355350892392E-01 3.543833990649556398E+00
        pair_coeff 34   39  2.698497977488837352E-01 3.519697804995386647E+00
        pair_coeff 35   39  1.984241890350484927E-01 3.305857263449297090E+00
        pair_coeff 36    39  3.906995699558794138E-02 3.276709183128165837E+00
        pair_coeff 37    39  2.203757955387509737E-01 3.753564291637640160E+00
        pair_coeff 38   39  1.745857558702323398E-01 3.420002180612172538E+00
        pair_coeff 39  39  2.995112907802387481E-01 3.440003336141669088E+00
        pair_coeff 1      40   7.770287548036601544E-02 2.465397265096893165E+00
        pair_coeff 2     40   9.023676167734992482E-02 2.404708885274443819E+00
        pair_coeff 3     40   7.063897770942365040E-02 2.504872880114495270E+00
        pair_coeff 4     40   7.063897770942365040E-02 2.504872880114495270E+00
        pair_coeff 5     40   5.539823784535763407E-02 2.640332054392829697E+00
        pair_coeff 6      40   5.495456790555701410E-02 2.628137055231117181E+00
        pair_coeff 7     40   5.495456790555701410E-02 2.628137055231117181E+00
        pair_coeff 8     40   5.495456790555701410E-02 2.628137055231117181E+00
        pair_coeff 9     40   5.495456790555701410E-02 2.628137055231117181E+00
        pair_coeff 10     40   5.495456790555701410E-02 2.628137055231117181E+00
        pair_coeff 11     40   5.495456790555701410E-02 2.628137055231117181E+00
        pair_coeff 12      40   3.618604110595938922E-02 2.808278980140014092E+00
        pair_coeff 13    40   5.746322902807278477E-03 3.823795705227954755E+00
        pair_coeff 14    40   2.116372372780480487E-02 3.324632757632268287E+00
        pair_coeff 15    40   4.402125093804482719E-02 2.993951524832954014E+00
        pair_coeff 16    40   6.397799041847561374E-02 2.872911743474042101E+00
        pair_coeff 17    40   7.723094710927499995E-02 2.858322350135023004E+00
        pair_coeff 18   40   4.756382176938069029E-02 2.951114794077698278E+00
        pair_coeff 19    40   4.871021634409310186E-02 2.870332337990671334E+00
        pair_coeff 20     40   2.363871921228234349E-02 2.286195847282922244E+00
        pair_coeff 21      40   0.000000000000000000E+00 0.000000000000000000E+00
        pair_coeff 22    40   0.000000000000000000E+00 0.000000000000000000E+00
        pair_coeff 23      40   9.484836036467202136E-02 2.698919204504523606E+00
        pair_coeff 24   40   2.006724075058574086E-01 1.828607061516331456E+00
        pair_coeff 25   40   2.006724075058574086E-01 1.828607061516331456E+00
        pair_coeff 26     40   0.000000000000000000E+00 0.000000000000000000E+00
        pair_coeff 27   40   1.478606180871174514E-01 1.924093842806378074E+00
        pair_coeff 28   40   3.841598999863683750E-02 2.063333071457193135E+00
        pair_coeff 29   40   4.891609792639325244E-02 2.488975910983167061E+00
        pair_coeff 30     40   6.858076068133200920E-02 2.740275456148935529E+00
        pair_coeff 31      40   4.639080137386862590E-02 2.544516968594239259E+00
        pair_coeff 32     40   7.698442252240610129E-02 2.764269704567898334E+00
        pair_coeff 33     40   1.174037646335611834E-01 2.835444526357811412E+00
        pair_coeff 34   40   6.929385610069017931E-02 2.816133007906088892E+00
        pair_coeff 35   40   5.095270523302689036E-02 2.645037805749309356E+00
        pair_coeff 36    40   1.003264779331716934E-02 2.621716237916714931E+00
        pair_coeff 37    40   5.658958721306098921E-02 3.003251098425550492E+00
        pair_coeff 38   40   4.492103907914993949E-02 2.799891255752950503E+00
        pair_coeff 39  40   7.712993371945030263E-02 2.820082387646319688E+00
        pair_coeff 40   40   1.974960730563848910E-02 2.202188219488486975E+00
        pair_coeff 1      41  3.078683944880841739E-01 3.134598379462572915E+00
        pair_coeff 2     41  3.575292004274581159E-01 3.057436901376735072E+00
        pair_coeff 3     41  2.798803586255310671E-01 3.184789154237201991E+00
        pair_coeff 4     41  2.798803586255310671E-01 3.184789154237201991E+00
        pair_coeff 5     41  2.194946639681157330E-01 3.357017019574562333E+00
        pair_coeff 6      41  2.177367888418141884E-01 3.341511841098447899E+00
        pair_coeff 7     41  2.177367888418141884E-01 3.341511841098447899E+00
        pair_coeff 8     41  2.177367888418141884E-01 3.341511841098447899E+00
        pair_coeff 9     41  2.177367888418141884E-01 3.341511841098447899E+00
        pair_coeff 10     41  2.177367888418141884E-01 3.341511841098447899E+00
        pair_coeff 11     41  2.177367888418141884E-01 3.341511841098447899E+00
        pair_coeff 12      41  1.433735664130799115E-01 3.570551028367321855E+00
        pair_coeff 13    41  2.276764142074000352E-02 4.861717010354688284E+00
        pair_coeff 14    41  8.385328863556677781E-02 4.227062551711202154E+00
        pair_coeff 15    41  1.744176359738121573E-01 3.806622052678410917E+00
        pair_coeff 16    41  2.534887038728330655E-01 3.652727543314932213E+00
        pair_coeff 17    41  3.059985559650827969E-01 3.634178042443301226E+00
        pair_coeff 18   41  1.884537393671708305E-01 3.752157829525465615E+00
        pair_coeff 19    41  1.929958963334948985E-01 3.649447990618651438E+00
        pair_coeff 20     41  9.365952658314305457E-02 2.906754988123776862E+00
        pair_coeff 21      41  0.000000000000000000E+00 0.000000000000000000E+00
        pair_coeff 22    41  0.000000000000000000E+00 0.000000000000000000E+00
        pair_coeff 23      41  3.758009242872520916E-01 3.431506915542800851E+00
        pair_coeff 24   41  7.950888758614560459E-01 2.324959475233958628E+00
        pair_coeff 25   41  7.950888758614560459E-01 2.324959475233958628E+00
        pair_coeff 26     41  0.000000000000000000E+00 0.000000000000000000E+00
        pair_coeff 27   41  5.858420401700457081E-01 2.446364943686976545E+00
        pair_coeff 28   41  1.522088994832513364E-01 2.623398911666701139E+00
        pair_coeff 29   41  1.938116246035951340E-01 3.164577152551757422E+00
        pair_coeff 30     41  2.717254484239552959E-01 3.484088802129798879E+00
        pair_coeff 31      41  1.838060876086547446E-01 3.235194132478707463E+00
        pair_coeff 32     41  3.050217950885778517E-01 3.514595987837878077E+00
        pair_coeff 33     41  4.651682231981815185E-01 3.605090320820125260E+00
        pair_coeff 34   41  2.745508205934842905E-01 3.580536933298883895E+00
        pair_coeff 35   41  2.018809144184158522E-01 3.363000088017528810E+00
        pair_coeff 36    41  3.975059030310198332E-02 3.333348173589975261E+00
        pair_coeff 37    41  2.242149373793861367E-01 3.818445878690444051E+00
        pair_coeff 38   41  1.776054487496074863E-01 3.479086156840626831E+00
        pair_coeff 39  41  3.047290431444037995E-01 3.499464919472758506E+00
        pair_coeff 40   41  7.825038462692963936E-02 2.799944545168011611E+00
        pair_coeff 41  41  3.100376933831125448E-01 3.559954315729227936E+00
        pair_coeff 1      42  2.517150719017874350E-01 3.216286733597559344E+00
        pair_coeff 2     42  2.923180488930291476E-01 3.137114409660223480E+00
        pair_coeff 3     42  2.288318835470794788E-01 3.267785491497223305E+00
        pair_coeff 4     42  2.288318835470794788E-01 3.267785491497223305E+00
        pair_coeff 5     42  1.794601723072659361E-01 3.444501654585188533E+00
        pair_coeff 6      42  1.780229229119614787E-01 3.428592407594721170E+00
        pair_coeff 7     42  1.780229229119614787E-01 3.428592407594721170E+00
        pair_coeff 8     42  1.780229229119614787E-01 3.428592407594721170E+00
        pair_coeff 9     42  1.780229229119614787E-01 3.428592407594721170E+00
        pair_coeff 10     42  1.780229229119614787E-01 3.428592407594721170E+00
        pair_coeff 11     42  1.780229229119614787E-01 3.428592407594721170E+00
        pair_coeff 12      42  1.172230999498745652E-01 3.663600408719620116E+00
        pair_coeff 13    42  1.861496210673063006E-02 4.988414472922134912E+00
        pair_coeff 14    42  6.855895881485152277E-02 4.337220773235620719E+00
        pair_coeff 15    42  1.426049200441300291E-01 3.905823498176049124E+00
        pair_coeff 16    42  2.072539060975635561E-01 3.747918462531858008E+00
        pair_coeff 17    42  2.501862805523388245E-01 3.728885557404626905E+00
        pair_coeff 18   42  1.540809235512614617E-01 3.849939924851243589E+00
        pair_coeff 19    42  1.577946187139902257E-01 3.744553443938634096E+00
        pair_coeff 20     42  7.657659860592054557E-02 2.982505691119483604E+00
        pair_coeff 21      42  0.000000000000000000E+00 0.000000000000000000E+00
        pair_coeff 22    42  0.000000000000000000E+00 0.000000000000000000E+00
        pair_coeff 23      42  3.072571214561132247E-01 3.520932774360979955E+00
        pair_coeff 24   42  6.500695009260647472E-01 2.385548453460561547E+00
        pair_coeff 25   42  6.500695009260647472E-01 2.385548453460561547E+00
        pair_coeff 26     42  0.000000000000000000E+00 0.000000000000000000E+00
        pair_coeff 27   42  4.789880153488779158E-01 2.510117776321816319E+00
        pair_coeff 28   42  1.244469220077783211E-01 2.691765290191502125E+00
        pair_coeff 29   42  1.584615631091823018E-01 3.247046760402909182E+00
        pair_coeff 30     42  2.221643793651205678E-01 3.574884956996347896E+00
        pair_coeff 31      42  1.502809752047785663E-01 3.319504035055336644E+00
        pair_coeff 32     42  2.493876749186909880E-01 3.606187166974876845E+00
        pair_coeff 33     42  3.803243686103310317E-01 3.699039803071263677E+00
        pair_coeff 34   42  2.244744208358758208E-01 3.673846548628572073E+00
        pair_coeff 35   42  1.650590635421556873E-01 3.450640643166755339E+00
        pair_coeff 36    42  3.250032440946476475E-02 3.420215993034873669E+00
        pair_coeff 37    42  1.833194965587523484E-01 3.917955455811204413E+00
        pair_coeff 38   42  1.452112951590650569E-01 3.569751941621275737E+00
        pair_coeff 39  42  2.491483191485096838E-01 3.590661779490871286E+00
        pair_coeff 40   42  6.397799041847561374E-02 2.872911743474042101E+00
        pair_coeff 41  42  2.534887038728330655E-01 3.652727543314932213E+00
        pair_coeff 42  42  2.072539060975635561E-01 3.747918462531858008E+00
        pair_coeff 1      43  3.540045720962458620E-01 2.694267436109534231E+00
        pair_coeff 2     43  4.111073883361350823E-01 2.627945173235017418E+00
        pair_coeff 3     43  2.223108962183115156E-01 2.911490578234520399E+00
        pair_coeff 4     43  3.218223382693144452E-01 2.737407690042663599E+00
        pair_coeff 5     43  1.944751755089789147E-01 3.013558317663839858E+00
        pair_coeff 6      43  1.512164790871689257E-01 3.123905428815852758E+00
        pair_coeff 7     43  1.305838306072752142E-01 3.201224736341582222E+00
        pair_coeff 8     43  9.576715086909036445E-02 3.371022389085928772E+00
        pair_coeff 9     43  1.595945784173651294E-01 3.095955496253500083E+00
        pair_coeff 10     43  1.367847387646038970E-01 3.176567760880071756E+00
        pair_coeff 11     43  1.480915417673231704E-01 3.134796518078508232E+00
        pair_coeff 12      43  1.648590726968548470E-01 3.068979881992677683E+00
        pair_coeff 13    43  2.617952769134209573E-02 4.178770049266796960E+00
        pair_coeff 14    43  9.641927555329404820E-02 3.633268318548095621E+00
        pair_coeff 15    43  2.005553077041754007E-01 3.271888962013142610E+00
        pair_coeff 16    43  2.914757141438480414E-01 3.139612697248032713E+00
        pair_coeff 17    43  3.518545255241552483E-01 3.123668927072572821E+00
        pair_coeff 18   43  2.166948168731066826E-01 3.225075569957748023E+00
        pair_coeff 19    43  2.219176470240586396E-01 3.136793837871186597E+00
        pair_coeff 20     43  1.076950451050141949E-01 2.498430216949698135E+00
        pair_coeff 21      43  0.000000000000000000E+00 0.000000000000000000E+00
        pair_coeff 22    43  0.000000000000000000E+00 0.000000000000000000E+00
        pair_coeff 23      43  4.321172545720066149E-01 2.949467912669808012E+00
        pair_coeff 24   43  2.241432820636522216E-01 2.525979396632042295E+00
        pair_coeff 25   43  1.232760656668827753E-01 2.790643100279648792E+00
        pair_coeff 26     43  0.000000000000000000E+00 0.000000000000000000E+00
        pair_coeff 27   43  5.190637964627597967E-01 2.196075677037649054E+00
        pair_coeff 28   43  1.348590981935383903E-01 2.354997178955427373E+00
        pair_coeff 29   43  1.717196629251071804E-01 2.840807104746190692E+00
        pair_coeff 30     43  3.124453591831943267E-01 2.994663388329067644E+00
        pair_coeff 31      43  2.113506828162100282E-01 2.780732057331203322E+00
        pair_coeff 32     43  3.507313903718691228E-01 3.020885094292788509E+00
        pair_coeff 33     43  5.348768524286334758E-01 3.098667286775234508E+00
        pair_coeff 34   43  3.156941326324790298E-01 3.077563022548567950E+00
        pair_coeff 35   43  1.788691604327004581E-01 3.018929254291899511E+00
        pair_coeff 36    43  3.521954878549677509E-02 2.992311047462213214E+00
        pair_coeff 37    43  2.578150741863444728E-01 3.282051842720017820E+00
        pair_coeff 38   43  2.042208359552802888E-01 2.990363486821641992E+00
        pair_coeff 39  43  3.503947675532131378E-01 3.007879554241217335E+00
        pair_coeff 40   43  8.997673818477992802E-02 2.406623910860338000E+00
        pair_coeff 41  43  3.564989552184898436E-01 3.059871736599097503E+00
        pair_coeff 42  43  2.914757141438480414E-01 3.139612697248032713E+00
        pair_coeff 43  43  4.099227538595709985E-01 2.630037976349726581E+00
        pair_coeff 1      44   1.289710283612314212E-01 3.227417274371960687E+00
        pair_coeff 2     44   1.497747397064584929E-01 3.147970960317207023E+00
        pair_coeff 3     44   1.172463894193012807E-01 3.279094253018750571E+00
        pair_coeff 4     44   1.172463894193012807E-01 3.279094253018750571E+00
        pair_coeff 5     44   9.194984947656417718E-02 3.456421974285966314E+00
        pair_coeff 6      44   9.121344727734942426E-02 3.440457670474703633E+00
        pair_coeff 7     44   9.121344727734942426E-02 3.440457670474703633E+00
        pair_coeff 8     44   9.121344727734942426E-02 3.440457670474703633E+00
        pair_coeff 9     44   9.121344727734942426E-02 3.440457670474703633E+00
        pair_coeff 10     44   9.121344727734942426E-02 3.440457670474703633E+00
        pair_coeff 11     44   9.121344727734942426E-02 3.440457670474703633E+00
        pair_coeff 12      44   6.006149585721085732E-02 3.676278959205930619E+00
        pair_coeff 13    44   9.537731641064108729E-03 5.005677781603687038E+00
        pair_coeff 14    44   3.512749298213131699E-02 4.352230508580356094E+00
        pair_coeff 15    44   7.306635652965057237E-02 3.919340305384166889E+00
        pair_coeff 16    44   1.061905002323981356E-01 3.760888810862612175E+00
        pair_coeff 17    44   1.281877228920814960E-01 3.741790038931789741E+00
        pair_coeff 18   44   7.894630627842579018E-02 3.863263336867006181E+00
        pair_coeff 19    44   8.084908897847854770E-02 3.757512147015167780E+00
        pair_coeff 20     44   3.923548397794881376E-02 2.992827190399418136E+00
        pair_coeff 21      44   0.000000000000000000E+00 0.000000000000000000E+00
        pair_coeff 22    44   0.000000000000000000E+00 0.000000000000000000E+00
        pair_coeff 23      44   1.574290590790217992E-01 3.533117597747393646E+00
        pair_coeff 24   44   3.330755342032887256E-01 2.393804074470089471E+00
        pair_coeff 25   44   3.330755342032887256E-01 2.393804074470089471E+00
        pair_coeff 26     44   0.000000000000000000E+00 0.000000000000000000E+00
        pair_coeff 27   44   2.454186650227814237E-01 2.518804491957598035E+00
        pair_coeff 28   44   6.376275916443908953E-02 2.701080629836012825E+00
        pair_coeff 29   44   8.119081068730508999E-02 3.258283751802188988E+00
        pair_coeff 30     44   1.138301662092522648E-01 3.587256491649024159E+00
        pair_coeff 31      44   7.699933011103650415E-02 3.330991777931932241E+00
        pair_coeff 32     44   1.277785420311642051E-01 3.618667028575163869E+00
        pair_coeff 33     44   1.948664597630800355E-01 3.711840997978461676E+00
        pair_coeff 34   44   1.150137601108388863E-01 3.686560557731444199E+00
        pair_coeff 35   44   8.457116613851239917E-02 3.462582207945594348E+00
        pair_coeff 36    44   1.665216242115909184E-02 3.432052267820347335E+00
        pair_coeff 37    44   9.392724802379077975E-02 3.931514247848511001E+00
        pair_coeff 38   44   7.440178263794279545E-02 3.582105712547747789E+00
        pair_coeff 39  44   1.276559035272747666E-01 3.603087912685470684E+00
        pair_coeff 40   44   3.278034626379167787E-02 2.882853973116679569E+00
        pair_coeff 41  44   1.298797826027309477E-01 3.665368466287981519E+00
        pair_coeff 42  44   1.061905002323981356E-01 3.760888810862612175E+00
        pair_coeff 43  44   1.493431533973610947E-01 3.150477893680148966E+00
        pair_coeff 44   44   5.440873251526867627E-02 3.773904045424884668E+00
        pair_coeff 1      45  2.876124418215142975E-01 3.084725325848334254E+00
        pair_coeff 2     45  3.340058550940822601E-01 3.008791526102005953E+00
        pair_coeff 3     45  2.614658562013765786E-01 3.134117539883036763E+00
        pair_coeff 4     45  2.614658562013765786E-01 3.134117539883036763E+00
        pair_coeff 5     45  2.050531896125046272E-01 3.303605172335025486E+00
        pair_coeff 6      45  2.034109724621096793E-01 3.288346689130147382E+00
        pair_coeff 7     45  2.034109724621096793E-01 3.288346689130147382E+00
        pair_coeff 8     45  2.034109724621096793E-01 3.288346689130147382E+00
        pair_coeff 9     45  2.034109724621096793E-01 3.288346689130147382E+00
        pair_coeff 10     45  2.034109724621096793E-01 3.288346689130147382E+00
        pair_coeff 11     45  2.034109724621096793E-01 3.288346689130147382E+00
        pair_coeff 12      45  1.339404182663543053E-01 3.513741746503062924E+00
        pair_coeff 13    45  2.126966281947830981E-02 4.784364621384128213E+00
        pair_coeff 14    45  7.833622915187883617E-02 4.159807837788846996E+00
        pair_coeff 15    45  1.629419683127158180E-01 3.746056760816388831E+00
        pair_coeff 16    45  2.368106190837268310E-01 3.594610791325419719E+00
        pair_coeff 17    45  2.858656278157876152E-01 3.576356422441845595E+00
        pair_coeff 18   45  1.760545776058381751E-01 3.692459091139371985E+00
        pair_coeff 19    45  1.802978870185932558E-01 3.591383417979618908E+00
        pair_coeff 20     45  8.749727358411062139E-02 2.860507038684394931E+00
        pair_coeff 21      45  0.000000000000000000E+00 0.000000000000000000E+00
        pair_coeff 22    45  0.000000000000000000E+00 0.000000000000000000E+00
        pair_coeff 23      45  3.510754056218069463E-01 3.376909896193278637E+00
        pair_coeff 24   45  7.427766446499820541E-01 2.287968188146278781E+00
        pair_coeff 25   45  7.427766446499820541E-01 2.287968188146278781E+00
        pair_coeff 26     45  0.000000000000000000E+00 0.000000000000000000E+00
        pair_coeff 27   45  5.472970357193517321E-01 2.407442033882686516E+00
        pair_coeff 28   45  1.421944377243884450E-01 2.581659301440933696E+00
        pair_coeff 29   45  1.810599451051872477E-01 3.114227121418688515E+00
        pair_coeff 30     45  2.538474917381768337E-01 3.428655178235952672E+00
        pair_coeff 31      45  1.717127143456437521E-01 3.183720549298572955E+00
        pair_coeff 32     45  2.849531321332268163E-01 3.458676979111828587E+00
        pair_coeff 33     45  4.345628551909777593E-01 3.547731501255731335E+00
        pair_coeff 34   45  2.564869708249599145E-01 3.523568770611071432E+00
        pair_coeff 35   45  1.885983225059109647E-01 3.309493047117717079E+00
        pair_coeff 36    45  3.713523227979241559E-02 3.280312909721536219E+00
        pair_coeff 37    45  2.094628964423923267E-01 3.757692463746214351E+00
        pair_coeff 38   45  1.659200415184466093E-01 3.423732127576304407E+00
        pair_coeff 39  45  2.846796415670648783E-01 3.443786653735909642E+00
        pair_coeff 40   45  7.310196369278490480E-02 2.755396004170551638E+00
        pair_coeff 41  45  2.896390134456565679E-01 3.503313632949622392E+00
        pair_coeff 42  45  2.368106190837268310E-01 3.594610791325419719E+00
        pair_coeff 43  45  3.330433940375682744E-01 3.011187621858291141E+00
        pair_coeff 44   45  1.213344470767514366E-01 3.607050590788261513E+00
        pair_coeff 45  45  2.705824481996443320E-01 3.447574132224956678E+00
        pair_coeff 1      46   1.591939588900956049E-01 2.914305969007454422E+00
        pair_coeff 2     46   1.848727893277152534E-01 2.842567223260527687E+00
        pair_coeff 3     46   1.297424277832890105E-01 3.015383630983031082E+00
        pair_coeff 4     46   1.447217808091778302E-01 2.960969450834395111E+00
        pair_coeff 5     46   1.134972772065044738E-01 3.121093535396749274E+00
        pair_coeff 6      46   8.825115390810175930E-02 3.235378250992776650E+00
        pair_coeff 7     46   7.620977424152966528E-02 3.315456605363892528E+00
        pair_coeff 8     46   5.589047980555466449E-02 3.491313283895585595E+00
        pair_coeff 9     46   9.314068008877877947E-02 3.206430958576428125E+00
        pair_coeff 10     46   7.982867413568051074E-02 3.289919775276922032E+00
        pair_coeff 11     46   8.642741534447667684E-02 3.246657975726112255E+00
        pair_coeff 12      46   7.413624147890124361E-02 3.319620862051439580E+00
        pair_coeff 13    46   1.177279330145077942E-02 4.520046649590542032E+00
        pair_coeff 14    46   4.335923148605760197E-02 3.929994255893134447E+00
        pair_coeff 15    46   9.018864705840204388E-02 3.539101354278793465E+00
        pair_coeff 16    46   1.310750665736078457E-01 3.396022199330606561E+00
        pair_coeff 17    46   1.582270944691577808E-01 3.378776314988137131E+00
        pair_coeff 18   46   9.744649783680001121E-02 3.488464752259239798E+00
        pair_coeff 19    46   9.979517656548757276E-02 3.392973126102896142E+00
        pair_coeff 20     46   4.842988462435294378E-02 2.702474890510119909E+00
        pair_coeff 21      46   0.000000000000000000E+00 0.000000000000000000E+00
        pair_coeff 22    46   0.000000000000000000E+00 0.000000000000000000E+00
        pair_coeff 23      46   1.943208135778947410E-01 3.190348451711801925E+00
        pair_coeff 24   46   1.308118229063097715E-01 2.616115944782948066E+00
        pair_coeff 25   46   7.194490382282986429E-02 2.890223855576281586E+00
        pair_coeff 26     46   0.000000000000000000E+00 0.000000000000000000E+00
        pair_coeff 27   46   3.029298080889223921E-01 2.274440006244081047E+00
        pair_coeff 28   46   7.870485480438377257E-02 2.439032431538718626E+00
        pair_coeff 29   46   1.002169769679346900E-01 2.942177902435911818E+00
        pair_coeff 30     46   1.405050035672634479E-01 3.239235003477465291E+00
        pair_coeff 31      46   9.504326939170110178E-02 3.007832082398090190E+00
        pair_coeff 32     46   1.577220266102814239E-01 3.267598213893569081E+00
        pair_coeff 33     46   2.405312540247006858E-01 3.351732811965022041E+00
        pair_coeff 34   46   1.419659595765774829E-01 3.328904980405696268E+00
        pair_coeff 35   46   1.043894812394069449E-01 3.126656127462947410E+00
        pair_coeff 36    46   2.055441205353729026E-02 3.099088081816367968E+00
        pair_coeff 37    46   1.159380571788471426E-01 3.550094228820277475E+00
        pair_coeff 38   46   9.183701546862199638E-02 3.234583932666422079E+00
        pair_coeff 39  46   1.575706491327610870E-01 3.253530522433367267E+00
        pair_coeff 40   46   4.046205695828821586E-02 2.603170841386070578E+00
        pair_coeff 41  46   1.603156696122686187E-01 3.309768862160356484E+00
        pair_coeff 42  46   1.310750665736078457E-01 3.396022199330606561E+00
        pair_coeff 43  46   1.843400655522983711E-01 2.844830943827911796E+00
        pair_coeff 44   46   6.715881572284602974E-02 3.407774747126039561E+00
        pair_coeff 45  46   1.497678294522704623E-01 3.257108757122733511E+00
        pair_coeff 46   46   8.289673956344170702E-02 3.077165870507050371E+00
        pair_coeff 1      47   1.722085049816445279E-01 3.045791995942584762E+00
        pair_coeff 2     47   1.999866507741778487E-01 2.970816581583684446E+00
        pair_coeff 3     47   1.565531863469495633E-01 3.094560814646859725E+00
        pair_coeff 4     47   1.565531863469495633E-01 3.094560814646859725E+00
        pair_coeff 5     47   1.227759932819626476E-01 3.261909288109908545E+00
        pair_coeff 6      47   1.217927125916918318E-01 3.246843387225244904E+00
        pair_coeff 7     47   1.217927125916918318E-01 3.246843387225244904E+00
        pair_coeff 8     47   1.217927125916918318E-01 3.246843387225244904E+00
        pair_coeff 9     47   1.217927125916918318E-01 3.246843387225244904E+00
        pair_coeff 10     47   1.217927125916918318E-01 3.246843387225244904E+00
        pair_coeff 11     47   1.217927125916918318E-01 3.246843387225244904E+00
        pair_coeff 12      47   8.019708410451541203E-02 3.469393659665676477E+00
        pair_coeff 13    47   1.273525168942131643E-02 4.723979586569880595E+00
        pair_coeff 14    47   4.690396848866595220E-02 4.107305538950095425E+00
        pair_coeff 15    47   9.756181820295757590E-02 3.698776550000724583E+00
        pair_coeff 16    47   1.417908155082314992E-01 3.549242029754096084E+00
        pair_coeff 17    47   1.711625967222450972E-01 3.531218055246321708E+00
        pair_coeff 18   47   1.054130183404619059E-01 3.645855354088885392E+00
        pair_coeff 19    47   1.079537080460851450E-01 3.546055390145638864E+00
        pair_coeff 20     47   5.238916153439685669E-02 2.824403641308426582E+00
        pair_coeff 21      47   0.000000000000000000E+00 0.000000000000000000E+00
        pair_coeff 22    47   0.000000000000000000E+00 0.000000000000000000E+00
        pair_coeff 23      47   2.102070771175983122E-01 3.334288809009665400E+00
        pair_coeff 24   47   4.447389504444150266E-01 2.259090991354548272E+00
        pair_coeff 25   47   4.447389504444150266E-01 2.259090991354548272E+00
        pair_coeff 26     47   0.000000000000000000E+00 0.000000000000000000E+00
        pair_coeff 27   47   3.276951570843523731E-01 2.377056918505081384E+00
        pair_coeff 28   47   8.513919419528666321E-02 2.549075332798732774E+00
        pair_coeff 29   47   1.084099917971301230E-01 3.074921439676577162E+00
        pair_coeff 30     47   1.519916759119208927E-01 3.385380996878945226E+00
        pair_coeff 31      47   1.028133193283557872E-01 3.143537768214339501E+00
        pair_coeff 32     47   1.706162381700878361E-01 3.415023882760973351E+00
        pair_coeff 33     47   2.601953487792239561E-01 3.502954418577414852E+00
        pair_coeff 34   47   1.535720691125297410E-01 3.479096653679860207E+00
        pair_coeff 35   47   1.129236098240292002E-01 3.267722850094167519E+00
        pair_coeff 36    47   2.223479204358534689E-02 3.238911004781051872E+00
        pair_coeff 37    47   1.254163137624429714E-01 3.710265394908199177E+00
        pair_coeff 38   47   9.934494528618387221E-02 3.380520081656078979E+00
        pair_coeff 39  47   1.704524851654297402E-01 3.400321493064580203E+00
        pair_coeff 40   47   4.376994193654968474E-02 2.720619247630047699E+00
        pair_coeff 41  47   1.734219186553421499E-01 3.459097162753066002E+00
        pair_coeff 42  47   1.417908155082314992E-01 3.549242029754096084E+00
        pair_coeff 43  47   1.994103753578723159E-01 2.973182435429682080E+00
        pair_coeff 44   47   7.264923450991972453E-02 3.561524822428556725E+00
        pair_coeff 45  47   1.620117634119973837E-01 3.404061168545596594E+00
        pair_coeff 46   47   8.967377711819192465E-02 3.215999719401493095E+00
        pair_coeff 47   47   9.700485622222822235E-02 3.361097396249958624E+00
        pair_coeff 1      48  1.891372059020736129E-01 3.289260052245521315E+00
        pair_coeff 2     48  2.196460409964854366E-01 3.208291412338459381E+00
        pair_coeff 3     48  1.719429144564305345E-01 3.341927249274361689E+00
        pair_coeff 4     48  1.719429144564305345E-01 3.341927249274361689E+00
        pair_coeff 5     48  1.348453046710865466E-01 3.522652869835305456E+00
        pair_coeff 6      48  1.337653640351980922E-01 3.506382662940996653E+00
        pair_coeff 7     48  1.337653640351980922E-01 3.506382662940996653E+00
        pair_coeff 8     48  1.337653640351980922E-01 3.506382662940996653E+00
        pair_coeff 9     48  1.337653640351980922E-01 3.506382662940996653E+00
        pair_coeff 10     48  1.337653640351980922E-01 3.506382662940996653E+00
        pair_coeff 11     48  1.337653640351980922E-01 3.506382662940996653E+00
        pair_coeff 12      48  8.808073916348332921E-02 3.746722686727856910E+00
        pair_coeff 13    48  1.398717166294168902E-02 5.101595040773273304E+00
        pair_coeff 14    48  5.151479334084436285E-02 4.435626611939518682E+00
        pair_coeff 15    48  1.071524876172654656E-01 3.994441499717314326E+00
        pair_coeff 16    48  1.557293507115795339E-01 3.832953806357374926E+00
        pair_coeff 17    48  1.879884811870324024E-01 3.813489069628770434E+00
        pair_coeff 18   48  1.157754883055521766E-01 3.937290001564532460E+00
        pair_coeff 19    48  1.185659367333865843E-01 3.829512439915094824E+00
        pair_coeff 20     48  5.753920012965894198E-02 3.050174825184523542E+00
        pair_coeff 21      48  0.000000000000000000E+00 0.000000000000000000E+00
        pair_coeff 22    48  0.000000000000000000E+00 0.000000000000000000E+00
        pair_coeff 23      48  2.308711711486143847E-01 3.600818111261308019E+00
        pair_coeff 24   48  4.884583514144283378E-01 2.439673412415888976E+00
        pair_coeff 25   48  4.884583514144283378E-01 2.439673412415888976E+00
        pair_coeff 26     48  0.000000000000000000E+00 0.000000000000000000E+00
        pair_coeff 27   48  3.599087420518621294E-01 2.567069049484753673E+00
        pair_coeff 28   48  9.350867603529200434E-02 2.752837906695117631E+00
        pair_coeff 29   48  1.190670747798516088E-01 3.320717983629539294E+00
        pair_coeff 30     48  1.669329915233766226E-01 3.655994398008439283E+00
        pair_coeff 31      48  1.129202297491380125E-01 3.394819218609366196E+00
        pair_coeff 32     48  1.873884136701188530E-01 3.688006813989214816E+00
        pair_coeff 33     48  2.857734654979058875E-01 3.782966154357451316E+00
        pair_coeff 34   48  1.686687429267214045E-01 3.757201298084295260E+00
        pair_coeff 35   48  1.240243973128351274E-01 3.528931143998987441E+00
        pair_coeff 36    48  2.442055020096505283E-02 3.497816198544354993E+00
        pair_coeff 37    48  1.377451779288986211E-01 4.006848715525531901E+00
        pair_coeff 38   48  1.091109023559897889E-01 3.650744921261102061E+00
        pair_coeff 39  48  1.872085631699220987E-01 3.672129175869041973E+00
        pair_coeff 40   48  4.807268097041665633E-02 2.938094334912183747E+00
        pair_coeff 41  48  1.904699024019997078E-01 3.735603130297924235E+00
        pair_coeff 42  48  1.557293507115795339E-01 3.832953806357374926E+00
        pair_coeff 43  48  2.190131156825951553E-01 3.210846382788003606E+00
        pair_coeff 44   48  7.979090944198904967E-02 3.846218434844132616E+00
        pair_coeff 45  48  1.779380888201725353E-01 3.676167785591720083E+00
        pair_coeff 46   48  9.848902438719817076E-02 3.473073479460133228E+00
        pair_coeff 47   48  1.065407743175067756E-01 3.629769666450928245E+00
        pair_coeff 48  48  1.170141066563726712E-01 3.919918490367800601E+00
        pair_coeff 1      49   2.491558874764578380E-01 2.855793572536012626E+00
        pair_coeff 2     49   2.893460544378792521E-01 2.785495171755656862E+00
        pair_coeff 3     49   2.030610329881481768E-01 2.954841833242532800E+00
        pair_coeff 4     49   2.265053522513252593E-01 2.901520161607548776E+00
        pair_coeff 5     49   1.776356026680076250E-01 3.058429331874637391E+00
        pair_coeff 6      49   1.762129657718276565E-01 3.044303251377937780E+00
        pair_coeff 7     49   1.192765986091082336E-01 3.248890049401691016E+00
        pair_coeff 8     49   1.762129657718276565E-01 3.044303251377937780E+00
        pair_coeff 9     49   1.457753106303604218E-01 3.142053380689358466E+00
        pair_coeff 10     49   1.762129657718276565E-01 3.044303251377937780E+00
        pair_coeff 11     49   1.762129657718276565E-01 3.044303251377937780E+00
        pair_coeff 12      49   1.160312939550487005E-01 3.252970697627771912E+00
        pair_coeff 13    49   1.842570398745426927E-02 4.429294764084048097E+00
        pair_coeff 14    49   6.786192061888589311E-02 3.851089232029210496E+00
        pair_coeff 15    49   1.411550573577402545E-01 3.468044538763741080E+00
        pair_coeff 16    49   2.051467578661674285E-01 3.327838076089515873E+00
        pair_coeff 17    49   2.476426393321955743E-01 3.310938448465757133E+00
        pair_coeff 18   49   1.525143844607987631E-01 3.418424600390641999E+00
        pair_coeff 19    49   1.561903225248004456E-01 3.324850221067261025E+00
        pair_coeff 20     49   7.579804515254030817E-02 2.648215562927745292E+00
        pair_coeff 21      49   0.000000000000000000E+00 0.000000000000000000E+00
        pair_coeff 22    49   0.000000000000000000E+00 0.000000000000000000E+00
        pair_coeff 23      49   3.041332416110918979E-01 3.126293772665116322E+00
        pair_coeff 24   49   6.434602513106866262E-01 2.118167472197251655E+00
        pair_coeff 25   49   6.434602513106866262E-01 2.118167472197251655E+00
        pair_coeff 26     49   0.000000000000000000E+00 0.000000000000000000E+00
        pair_coeff 27   49   4.741181493550025716E-01 2.228774610499382636E+00
        pair_coeff 28   49   1.231816714918823885E-01 2.390062407746226469E+00
        pair_coeff 29   49   1.568504861035088516E-01 2.883105903219756350E+00
        pair_coeff 30     49   2.199056365125826029E-01 3.174198797669536276E+00
        pair_coeff 31      49   1.487530701482332185E-01 2.947441901958409272E+00
        pair_coeff 32     49   2.468521531134249269E-01 3.201992541656678348E+00
        pair_coeff 33     49   3.764576148503470665E-01 3.284437915256962270E+00
        pair_coeff 34   49   2.221921918165813414E-01 3.262068412762940017E+00
        pair_coeff 35   49   1.633809098206280841E-01 3.063880240200058669E+00
        pair_coeff 36    49   3.216989396118666994E-02 3.036865695947625898E+00
        pair_coeff 37    49   1.814556892113898812E-01 3.478816702288478169E+00
        pair_coeff 38   49   1.437349334849495619E-01 3.169641109400411327E+00
        pair_coeff 39  49   2.466152308707815766E-01 3.188207296291331261E+00
        pair_coeff 40   49   6.332752687886390730E-02 2.550905305106105025E+00
        pair_coeff 41  49   2.509114869503538681E-01 3.243316502678857738E+00
        pair_coeff 42  49   2.051467578661674285E-01 3.327838076089515873E+00
        pair_coeff 43  49   2.223108962183115156E-01 2.911490578234520399E+00
        pair_coeff 44   49   1.051108625600908064E-01 3.339354660419386889E+00
        pair_coeff 45  49   2.344029680696937956E-01 3.191713688460029452E+00
        pair_coeff 46   49   1.297424277832890105E-01 3.015383630983031082E+00
        pair_coeff 47   49   1.403492298138912242E-01 3.151430023345263898E+00
        pair_coeff 48  49   1.541460520799295686E-01 3.403342348080735658E+00
        pair_coeff 49   49   2.030610329881481768E-01 2.954841833242532800E+00
        pair_coeff 1      50  1.791876903161000734E-01 3.217141909372776443E+00
        pair_coeff 2     50  2.080916157427709912E-01 3.137948534372799969E+00
        pair_coeff 3     50  1.628979002873637005E-01 3.268654360233876233E+00
        pair_coeff 4     50  1.628979002873637005E-01 3.268654360233876233E+00
        pair_coeff 5     50  1.277518010205411225E-01 3.445417510233855118E+00
        pair_coeff 6      50  1.267286703926965574E-01 3.429504033147082964E+00
        pair_coeff 7     50  1.267286703926965574E-01 3.429504033147082964E+00
        pair_coeff 8     50  1.267286703926965574E-01 3.429504033147082964E+00
        pair_coeff 9     50  1.267286703926965574E-01 3.429504033147082964E+00
        pair_coeff 10     50  1.267286703926965574E-01 3.429504033147082964E+00
        pair_coeff 11     50  1.267286703926965574E-01 3.429504033147082964E+00
        pair_coeff 12      50  8.344727382835046003E-02 3.664574520351796316E+00
        pair_coeff 13    50  1.325137998303192385E-02 4.989740838251888633E+00
        pair_coeff 14    50  4.880487047395847683E-02 4.338373993220113078E+00
        pair_coeff 15    50  1.015157577071503781E-01 3.906862014301811126E+00
        pair_coeff 16    50  1.475372470231036959E-01 3.748914993420465080E+00
        pair_coeff 17    50  1.780993939784465407E-01 3.729877027650093879E+00
        pair_coeff 18   50  1.096851475929681435E-01 3.850963582140682906E+00
        pair_coeff 19    50  1.123288051765993917E-01 3.745549080105277095E+00
        pair_coeff 20     50  5.451236484485043332E-02 2.983298707049888421E+00
        pair_coeff 21      50  0.000000000000000000E+00 0.000000000000000000E+00
        pair_coeff 22    50  0.000000000000000000E+00 0.000000000000000000E+00
        pair_coeff 23      50  2.187262507204020268E-01 3.521868952215817750E+00
        pair_coeff 24   50  4.627631215556714528E-01 2.386182744932990651E+00
        pair_coeff 25   50  4.627631215556714528E-01 2.386182744932990651E+00
        pair_coeff 26     50  0.000000000000000000E+00 0.000000000000000000E+00
        pair_coeff 27   50  3.409758323607505748E-01 2.510785189426758102E+00
        pair_coeff 28   50  8.858967543358814423E-02 2.692481001401170193E+00
        pair_coeff 29   50  1.128035809810071233E-01 3.247910114935789849E+00
        pair_coeff 30     50  1.581515231017961709E-01 3.575835480151661638E+00
        pair_coeff 31      50  1.069800892014212690E-01 3.320386655192049563E+00
        pair_coeff 32     50  1.775308928637313044E-01 3.607146013048481148E+00
        pair_coeff 33     50  2.707404235563790063E-01 3.700023337654205324E+00
        pair_coeff 34   50  1.597959657350944140E-01 3.674823384598274068E+00
        pair_coeff 35   50  1.175001247974426788E-01 3.451558131105934013E+00
        pair_coeff 36    50  2.313591324292333176E-02 3.421125391389411519E+00
        pair_coeff 37    50  1.304991271682363063E-01 3.918997197692981160E+00
        pair_coeff 38   50  1.033711505265553082E-01 3.570701099963447422E+00
        pair_coeff 39  50  1.773605033542809684E-01 3.591616497532251984E+00
        pair_coeff 40   50  4.554382956704794427E-02 2.873675619561858241E+00
        pair_coeff 41  50  1.804502806487379984E-01 3.653698763970068875E+00
        pair_coeff 42  50  1.475372470231036959E-01 3.748914993420465080E+00
        pair_coeff 43  50  2.074919853073012854E-01 3.140447486228195473E+00
        pair_coeff 44   50  7.559352853363882074E-02 3.761888790426231033E+00
        pair_coeff 45  50  1.685776999976196511E-01 3.595566559366237147E+00
        pair_coeff 46   50  9.330803380147963122E-02 3.396925164817679033E+00
        pair_coeff 47   50  1.009362234330945657E-01 3.550185734733046772E+00
        pair_coeff 48  50  1.108586087340911325E-01 3.833972947222050731E+00
        pair_coeff 49   50  1.460372374214344571E-01 3.328722912157391800E+00
        pair_coeff 50  50  1.050269192461420475E-01 3.749911789275832241E+00
        pair_coeff 1      51  2.533852259367075921E-01 2.858274758416932571E+00
        pair_coeff 2     51  2.942576076375654770E-01 2.787915280603157520E+00
        pair_coeff 3     51  2.065079265987836976E-01 2.957409074764294044E+00
        pair_coeff 4     51  2.303502053970068741E-01 2.904041075908715186E+00
        pair_coeff 5     51  1.806509080412127821E-01 3.061086572842267373E+00
        pair_coeff 6      51  1.404672559692889122E-01 3.173174020534739626E+00
        pair_coeff 7     51  1.213012792659237393E-01 3.251712767470937848E+00
        pair_coeff 8     51  8.895954313830781168E-02 3.424188379397632431E+00
        pair_coeff 9     51  1.482497981251104935E-01 3.144783276351368784E+00
        pair_coeff 10     51  1.270613958791100284E-01 3.226666915174094541E+00
        pair_coeff 11     51  1.375644548126654931E-01 3.184236878323198461E+00
        pair_coeff 12      51  1.180008866429317071E-01 3.255796961067685569E+00
        pair_coeff 13    51  1.873847419457483343E-02 4.433143047705374151E+00
        pair_coeff 14    51  6.901385418853510367E-02 3.854435156020554309E+00
        pair_coeff 15    51  1.435511175872953848E-01 3.471057663811270455E+00
        pair_coeff 16    51  2.086290559640636977E-01 3.330729386206531473E+00
        pair_coeff 17    51  2.518462909076551459E-01 3.313815075757705841E+00
        pair_coeff 18   51  1.551032654961799484E-01 3.421394614377313736E+00
        pair_coeff 19    51  1.588416013882605060E-01 3.327738935260058373E+00
        pair_coeff 20     51  7.708469180103937057E-02 2.650516399769581533E+00
        pair_coeff 21      51  0.000000000000000000E+00 0.000000000000000000E+00
        pair_coeff 22    51  0.000000000000000000E+00 0.000000000000000000E+00
        pair_coeff 23      51  3.092958024031092212E-01 3.129009975979999414E+00
        pair_coeff 24   51  2.082100572999197041E-01 2.565817813773293210E+00
        pair_coeff 25   51  1.145129867819162373E-01 2.834655654012085524E+00
        pair_coeff 26     51  0.000000000000000000E+00 0.000000000000000000E+00
        pair_coeff 27   51  4.821661475142233755E-01 2.230711026404406550E+00
        pair_coeff 28   51  1.252726394642434959E-01 2.392138954579879240E+00
        pair_coeff 29   51  1.595129710245168642E-01 2.885610818746235928E+00
        pair_coeff 30     51  2.236384616749672039E-01 3.176956622085050697E+00
        pair_coeff 31      51  1.512781041220645495E-01 2.950002714232202727E+00
        pair_coeff 32     51  2.510423864477937528E-01 3.204774513981840212E+00
        pair_coeff 33     51  3.828478578635327034E-01 3.287291518213585562E+00
        pair_coeff 34   51  2.259638304960239485E-01 3.264902580528488585E+00
        pair_coeff 35   51  1.661542465158737936E-01 3.066542217055081565E+00
        pair_coeff 36    51  3.271596722949368652E-02 3.039504201881492840E+00
        pair_coeff 37    51  1.845358392852482765E-01 3.481839186464868341E+00
        pair_coeff 38   51  1.461747862551426580E-01 3.172394973980771304E+00
        pair_coeff 39  51  2.508014425287490301E-01 3.190977291645715308E+00
        pair_coeff 40   51  6.440249062037527172E-02 2.553121596328082887E+00
        pair_coeff 41  51  2.551706261287441935E-01 3.246134378309362578E+00
        pair_coeff 42  51  2.086290559640636977E-01 3.330729386206531473E+00
        pair_coeff 43  51  2.934096839152270930E-01 2.790135478285444393E+00
        pair_coeff 44   51  1.068950845510619613E-01 3.342255976436936837E+00
        pair_coeff 45  51  2.383818806215697028E-01 3.194486730256854035E+00
        pair_coeff 46   51  1.319447624152647047E-01 3.018003472754054783E+00
        pair_coeff 47   51  1.427316113884563031E-01 3.154168065672212862E+00
        pair_coeff 48  51  1.567626301313670423E-01 3.406299258224103177E+00
        pair_coeff 49   51  2.065079265987836976E-01 2.957409074764294044E+00
        pair_coeff 50  51  1.485161710364928667E-01 3.331614991042423313E+00
        pair_coeff 51  51  2.100133300839540085E-01 2.959978546770596353E+00
        pair_coeff 1      52  2.017250681962091674E-01 3.056690580133286872E+00
        pair_coeff 2     52  1.238182113317307792E-01 3.315741788485744745E+00
        pair_coeff 3     52  1.857777726664354978E-01 3.098935224280011003E+00
        pair_coeff 4     52  1.857777726664354978E-01 3.098935224280011003E+00
        pair_coeff 5     52  1.625163928514463119E-01 3.207574185829374258E+00
        pair_coeff 6      52  1.263665486179660624E-01 3.325025553250206656E+00
        pair_coeff 7     52  1.091245350954258148E-01 3.407322754347013039E+00
        pair_coeff 8     52  8.002940155303392422E-02 3.588052148088892501E+00
        pair_coeff 9     52  1.333678457168430698E-01 3.295276176356722875E+00
        pair_coeff 10     52  1.143064264267728281E-01 3.381078338392825344E+00
        pair_coeff 11     52  1.237551431273730129E-01 3.336617821622679614E+00
        pair_coeff 12      52  1.061554500800334505E-01 3.411602396114444158E+00
        pair_coeff 13    52  1.685742555441499188E-02 4.645290116282322579E+00
        pair_coeff 14    52  6.208594665318631356E-02 4.038888287934027765E+00
        pair_coeff 15    52  1.291408389420262981E-01 3.637164351620559177E+00
        pair_coeff 16    52  1.876859739423346884E-01 3.490120695691245611E+00
        pair_coeff 17    52  2.265648769503596782E-01 3.472396954700678773E+00
        pair_coeff 18   52  1.395333325541259217E-01 3.585124688068666021E+00
        pair_coeff 19    52  1.428963982095136920E-01 3.486987137383879443E+00
        pair_coeff 20     52  6.934659887074805240E-02 2.777356268994485955E+00
        pair_coeff 21      52  0.000000000000000000E+00 0.000000000000000000E+00
        pair_coeff 22    52  0.000000000000000000E+00 0.000000000000000000E+00
        pair_coeff 23      52  2.782473593721414562E-01 3.278748048225554435E+00
        pair_coeff 24   52  5.886930177039987333E-01 2.221460288218898071E+00
        pair_coeff 25   52  5.886930177039987333E-01 2.221460288218898071E+00
        pair_coeff 26     52  0.000000000000000000E+00 0.000000000000000000E+00
        pair_coeff 27   52  4.337642356672424815E-01 2.337461203423603529E+00
        pair_coeff 28   52  1.126972330748762380E-01 2.506614228980403869E+00
        pair_coeff 29   52  1.435003728738950268E-01 3.023701078785963059E+00
        pair_coeff 30     52  2.011886709474526580E-01 3.328989170351303706E+00
        pair_coeff 31      52  9.673967369602196054E-02 3.272112746045770404E+00
        pair_coeff 32     52  2.258416718780438259E-01 3.358138281240213630E+00
        pair_coeff 33     52  3.444159431332070587E-01 3.444604118245261581E+00
        pair_coeff 34   52  2.032806092440548607E-01 3.421143762957048029E+00
        pair_coeff 35   52  1.494749685650599014E-01 3.213290908675224156E+00
        pair_coeff 36    52  2.943179771656875832E-02 3.184958995335595677E+00
        pair_coeff 37    52  1.660113379868037031E-01 3.648461821628244284E+00
        pair_coeff 38   52  1.315011324637096746E-01 3.324209225597718920E+00
        pair_coeff 39  52  2.256249149459740866E-01 3.343680795916493587E+00
        pair_coeff 40   52  5.793749159503105983E-02 2.675300659027595618E+00
        pair_coeff 41  52  2.295555011028669046E-01 3.401477412620344865E+00
        pair_coeff 42  52  1.876859739423346884E-01 3.490120695691245611E+00
        pair_coeff 43  52  2.033892102840210714E-01 3.053469937559857073E+00
        pair_coeff 44   52  9.616449617195252375E-02 3.502198888317909375E+00
        pair_coeff 45  52  2.144520820837692021E-01 3.347358177927088452E+00
        pair_coeff 46   52  1.186995796250189389E-01 3.162429353626820649E+00
        pair_coeff 47   52  1.284035983003997405E-01 3.305110072670552235E+00
        pair_coeff 48  52  1.410261230297450152E-01 3.569306947024517562E+00
        pair_coeff 49   52  1.857777726664354978E-01 3.098935224280011003E+00
        pair_coeff 50  52  1.336074789696210519E-01 3.491048680948393823E+00
        pair_coeff 51  52  1.889312886718397255E-01 3.101627657794223669E+00
        pair_coeff 52  52  1.699655532576562489E-01 3.250055355330133011E+00
        pair_coeff 1      53   2.517150719017874350E-01 3.216286733597559344E+00
        pair_coeff 2     53   8.204532982457217460E-02 3.877013547662570669E+00
        pair_coeff 3     53   2.288318835470794788E-01 3.267785491497223305E+00
        pair_coeff 4     53   2.288318835470794788E-01 3.267785491497223305E+00
        pair_coeff 5     53   1.794601723072659361E-01 3.444501654585188533E+00
        pair_coeff 6      53   1.780229229119614787E-01 3.428592407594721170E+00
        pair_coeff 7     53   1.780229229119614787E-01 3.428592407594721170E+00
        pair_coeff 8     53   1.780229229119614787E-01 3.428592407594721170E+00
        pair_coeff 9     53   1.780229229119614787E-01 3.428592407594721170E+00
        pair_coeff 10     53   1.780229229119614787E-01 3.428592407594721170E+00
        pair_coeff 11     53   1.780229229119614787E-01 3.428592407594721170E+00
        pair_coeff 12      53   1.172230999498745652E-01 3.663600408719620116E+00
        pair_coeff 13    53   1.861496210673063006E-02 4.988414472922134912E+00
        pair_coeff 14    53   6.855895881485152277E-02 4.337220773235620719E+00
        pair_coeff 15    53   1.426049200441300291E-01 3.905823498176049124E+00
        pair_coeff 16    53   2.072539060975635561E-01 3.747918462531858008E+00
        pair_coeff 17    53   2.501862805523388245E-01 3.728885557404626905E+00
        pair_coeff 18   53   1.540809235512614617E-01 3.849939924851243589E+00
        pair_coeff 19    53   1.577946187139902257E-01 3.744553443938634096E+00
        pair_coeff 20     53   7.657659860592054557E-02 2.982505691119483604E+00
        pair_coeff 21      53   0.000000000000000000E+00 0.000000000000000000E+00
        pair_coeff 22    53   0.000000000000000000E+00 0.000000000000000000E+00
        pair_coeff 23      53   3.072571214561132247E-01 3.520932774360979955E+00
        pair_coeff 24   53   6.500695009260647472E-01 2.385548453460561547E+00
        pair_coeff 25   53   6.500695009260647472E-01 2.385548453460561547E+00
        pair_coeff 26     53   0.000000000000000000E+00 0.000000000000000000E+00
        pair_coeff 27   53   4.789880153488779158E-01 2.510117776321816319E+00
        pair_coeff 28   53   1.244469220077783211E-01 2.691765290191502125E+00
        pair_coeff 29   53   1.584615631091823018E-01 3.247046760402909182E+00
        pair_coeff 30     53   2.221643793651205678E-01 3.574884956996347896E+00
        pair_coeff 31      53   1.502809752047785663E-01 3.319504035055336644E+00
        pair_coeff 32     53   2.493876749186909880E-01 3.606187166974876845E+00
        pair_coeff 33     53   3.803243686103310317E-01 3.699039803071263677E+00
        pair_coeff 34   53   2.244744208358758208E-01 3.673846548628572073E+00
        pair_coeff 35   53   1.650590635421556873E-01 3.450640643166755339E+00
        pair_coeff 36    53   3.250032440946476475E-02 3.420215993034873669E+00
        pair_coeff 37    53   1.833194965587523484E-01 3.917955455811204413E+00
        pair_coeff 38   53   1.452112951590650569E-01 3.569751941621275737E+00
        pair_coeff 39  53   2.491483191485096838E-01 3.590661779490871286E+00
        pair_coeff 40   53   6.397799041847561374E-02 2.872911743474042101E+00
        pair_coeff 41  53   2.534887038728330655E-01 3.652727543314932213E+00
        pair_coeff 42  53   2.072539060975635561E-01 3.747918462531858008E+00
        pair_coeff 43  53   2.914757141438480414E-01 3.139612697248032713E+00
        pair_coeff 44   53   1.061905002323981356E-01 3.760888810862612175E+00
        pair_coeff 45  53   2.368106190837268310E-01 3.594610791325419719E+00
        pair_coeff 46   53   1.310750665736078457E-01 3.396022199330606561E+00
        pair_coeff 47   53   1.417908155082314992E-01 3.549242029754096084E+00
        pair_coeff 48  53   1.557293507115795339E-01 3.832953806357374926E+00
        pair_coeff 49   53   2.051467578661674285E-01 3.327838076089515873E+00
        pair_coeff 50  53   1.475372470231036959E-01 3.748914993420465080E+00
        pair_coeff 51  53   2.086290559640636977E-01 3.330729386206531473E+00
        pair_coeff 52  53   1.876859739423346884E-01 3.490120695691245611E+00
        pair_coeff 53   53   2.072539060975635561E-01 3.747918462531858008E+00
        pair_coeff 1      54      5.058019451083491935E-01 3.259627155281799471E+00
        pair_coeff 2     54      5.873904832288343592E-01 3.179387960698472515E+00
        pair_coeff 3     54      4.598199500984992416E-01 3.311819874282714959E+00
        pair_coeff 4     54      4.598199500984992416E-01 3.311819874282714959E+00
        pair_coeff 5     54      3.606113195236524960E-01 3.490917340301991079E+00
        pair_coeff 6      54      3.577232781590320432E-01 3.474793711469867041E+00
        pair_coeff 7     54      3.577232781590320432E-01 3.474793711469867041E+00
        pair_coeff 8     54      3.577232781590320432E-01 3.474793711469867041E+00
        pair_coeff 9     54      3.577232781590320432E-01 3.474793711469867041E+00
        pair_coeff 10     54      3.577232781590320432E-01 3.474793711469867041E+00
        pair_coeff 11     54      3.577232781590320432E-01 3.474793711469867041E+00
        pair_coeff 12      54      2.355507420287134279E-01 3.712968515405449921E+00
        pair_coeff 13    54      3.740532488009395973E-02 5.055634843709905013E+00
        pair_coeff 14    54      1.377639187878478000E-01 4.395666114966524596E+00
        pair_coeff 15    54      2.865535440344418872E-01 3.958455633136796159E+00
        pair_coeff 16    54      4.164606753319582411E-01 3.798422780106363472E+00
        pair_coeff 17    54      5.027299572755441481E-01 3.779133400913722962E+00
        pair_coeff 18   54      3.096136844230243934E-01 3.901819012016897847E+00
        pair_coeff 19    54      3.170760672777966915E-01 3.795012416885348738E+00
        pair_coeff 20     54      1.538747450918169224E-01 3.022695843626246770E+00
        pair_coeff 21      54      0.000000000000000000E+00 0.000000000000000000E+00
        pair_coeff 22    54      0.000000000000000000E+00 0.000000000000000000E+00
        pair_coeff 23      54      6.174093927181751873E-01 3.568378392181247971E+00
        pair_coeff 24   54      1.306264323148313311E+00 2.417694429390239375E+00
        pair_coeff 25   54      1.306264323148313311E+00 2.417694429390239375E+00
        pair_coeff 26     54      0.000000000000000000E+00 0.000000000000000000E+00
        pair_coeff 27   54      9.624893257944396874E-01 2.543942360979170036E+00
        pair_coeff 28   54      2.500664530681778186E-01 2.728037629200720460E+00
        pair_coeff 29   54      3.184162403942434882E-01 3.290801682610015710E+00
        pair_coeff 30     54      4.464221167515604050E-01 3.623057596546916947E+00
        pair_coeff 31      54      3.019779824746237074E-01 3.364235340619288195E+00
        pair_coeff 32     54      5.011252210957767295E-01 3.654781613128054829E+00
        pair_coeff 33     54      7.642323678189105740E-01 3.748885466151363310E+00
        pair_coeff 34   54      4.510639662060295652E-01 3.723352725101418237E+00
        pair_coeff 35   54      3.316734066284257043E-01 3.497139053583150137E+00
        pair_coeff 36    54      6.530688519666234815E-02 3.466304422228967397E+00
        pair_coeff 37    54      3.683663327553086675E-01 3.970751072514505431E+00
        pair_coeff 38   54      2.917908529999159173E-01 3.617855412260831294E+00
        pair_coeff 39  54      5.006442542104175830E-01 3.639047016423571534E+00
        pair_coeff 40   54      1.285588175284727575E-01 2.911625084894475357E+00
        pair_coeff 41  54      5.093659212107068956E-01 3.701949134901025840E+00
        pair_coeff 42  54      4.164606753319582411E-01 3.798422780106363472E+00
        pair_coeff 43  54      5.856978767776226391E-01 3.181919913455625970E+00
        pair_coeff 44   54      2.133815872199037178E-01 3.811567907744004557E+00
        pair_coeff 45  54      4.758526013158087542E-01 3.643049242368777918E+00
        pair_coeff 46   54      2.633851963143667985E-01 3.441784609948579376E+00
        pair_coeff 47   54      2.849176640107791147E-01 3.597069123222504494E+00
        pair_coeff 48  54      3.129260711536197559E-01 3.884604000517125399E+00
        pair_coeff 49   54      4.122265241306839467E-01 3.372681685338640545E+00
        pair_coeff 50  54      2.964646731576463523E-01 3.799432739545504756E+00
        pair_coeff 51  54      4.192239325022028562E-01 3.375611956720639295E+00
        pair_coeff 52  54      3.771404309338606820E-01 3.537151111574271312E+00
        pair_coeff 53   54      4.164606753319582411E-01 3.798422780106363472E+00
        pair_coeff 54      54      8.368454779149256950E-01 3.849607658402551813E+00
        pair_coeff 1      55  3.175870057215742226E-01 3.004156156701421221E+00
        pair_coeff 2     55  3.688154752311860185E-01 2.930205652875953248E+00
        pair_coeff 3     55  2.887154597468856720E-01 3.052258307853131569E+00
        pair_coeff 4     55  2.887154597468856720E-01 3.052258307853131569E+00
        pair_coeff 5     55  2.264235444414708642E-01 3.217319135230157112E+00
        pair_coeff 6      55  2.246101777309229275E-01 3.202459184531222913E+00
        pair_coeff 7     55  2.246101777309229275E-01 3.202459184531222913E+00
        pair_coeff 8     55  2.246101777309229275E-01 3.202459184531222913E+00
        pair_coeff 9     55  2.246101777309229275E-01 3.202459184531222913E+00
        pair_coeff 10     55  2.246101777309229275E-01 3.202459184531222913E+00
        pair_coeff 11     55  2.246101777309229275E-01 3.202459184531222913E+00
        pair_coeff 12      55  1.478995001499436579E-01 3.421967204782814687E+00
        pair_coeff 13    55  2.348635714353968298E-02 4.659402998639063931E+00
        pair_coeff 14    55  8.650032070345334279E-02 4.051158857442665351E+00
        pair_coeff 15    55  1.799235509252720133E-01 3.648214441350505322E+00
        pair_coeff 16    55  2.614906885166861650E-01 3.500724051252714020E+00
        pair_coeff 17    55  3.156581412186418856E-01 3.482946463663709302E+00
        pair_coeff 18   55  1.944027379041995962E-01 3.596016675800414841E+00
        pair_coeff 19    55  1.990882790519060419E-01 3.497580972864009485E+00
        pair_coeff 20     55  9.661611629313200666E-02 2.785794170892084587E+00
        pair_coeff 21      55  0.000000000000000000E+00 0.000000000000000000E+00
        pair_coeff 22    55  0.000000000000000000E+00 0.000000000000000000E+00
        pair_coeff 23      55  3.876639902911756530E-01 3.288709231343011297E+00
        pair_coeff 24   55  8.201877811694162634E-01 2.228209319371530661E+00
        pair_coeff 25   55  8.201877811694162634E-01 2.228209319371530661E+00
        pair_coeff 26     55  0.000000000000000000E+00 0.000000000000000000E+00
        pair_coeff 27   55  6.043355625145997445E-01 2.344562657617333290E+00
        pair_coeff 28   55  1.570137418991634226E-01 2.514229587944387223E+00
        pair_coeff 29   55  1.999297577597621556E-01 3.032887402253098053E+00
        pair_coeff 30     55  2.803031200614393148E-01 3.339102991308009027E+00
        pair_coeff 31      55  1.896083717657784939E-01 3.100565748673854038E+00
        pair_coeff 32     55  3.146505465202936724E-01 3.368340660276711862E+00
        pair_coeff 33     55  4.798523843539687084E-01 3.455069189633579008E+00
        pair_coeff 34   55  2.832176819438365079E-01 3.431537559306359508E+00
        pair_coeff 35   55  2.082537742436552652E-01 3.223053226084240830E+00
        pair_coeff 36    55  4.100541392375962879E-02 3.194635237397348781E+00
        pair_coeff 37    55  2.312928247109353463E-01 3.659546234266159548E+00
        pair_coeff 38   55  1.832119947291552531E-01 3.334308524577047184E+00
        pair_coeff 39  55  3.143485531522378085E-01 3.353839251584496139E+00
        pair_coeff 40   55  8.072054746493292909E-02 2.683428505195357694E+00
        pair_coeff 41  55  3.198247837881820765E-01 3.411811460518701100E+00
        pair_coeff 42  55  2.614906885166861650E-01 3.500724051252714020E+00
        pair_coeff 43  55  3.677527078379324021E-01 2.932539165606559806E+00
        pair_coeff 44   55  1.339797523846405214E-01 3.512838938705180603E+00
        pair_coeff 45  55  2.987821701324951396E-01 3.357527805870319515E+00
        pair_coeff 46   55  1.653764218541119713E-01 3.172037148255793415E+00
        pair_coeff 47   55  1.788964013789737795E-01 3.315151346404604737E+00
        pair_coeff 48  55  1.964825460064327234E-01 3.580150878787119240E+00
        pair_coeff 49   55  2.588321155025055109E-01 3.108350117033022997E+00
        pair_coeff 50  55  1.861466306346315491E-01 3.501654855827156965E+00
        pair_coeff 51  55  2.632257047206049139E-01 3.111050730444828272E+00
        pair_coeff 52  55  2.368019762580622356E-01 3.259929367013902457E+00
        pair_coeff 53   55  2.614906885166861650E-01 3.500724051252714020E+00
        pair_coeff 54      55  5.254452897086219210E-01 3.547897350510067938E+00
        pair_coeff 55  55  3.299208273968177729E-01 3.269833376988799500E+00
        pair_coeff 1      56      1.423703976828447626E-01 3.143928959384971744E+00
        pair_coeff 2     56      1.653354984123153737E-01 3.066537799135407028E+00
        pair_coeff 3     56      1.294276342571315797E-01 3.194269134171567437E+00
        pair_coeff 4     56      1.294276342571315797E-01 3.194269134171567437E+00
        pair_coeff 5     56      1.015029251390483361E-01 3.367009660356621747E+00
        pair_coeff 6      56      1.006900148654086141E-01 3.351458328501519368E+00
        pair_coeff 7     56      1.006900148654086141E-01 3.351458328501519368E+00
        pair_coeff 8     56      1.006900148654086141E-01 3.351458328501519368E+00
        pair_coeff 9     56      1.006900148654086141E-01 3.351458328501519368E+00
        pair_coeff 10     56      1.006900148654086141E-01 3.351458328501519368E+00
        pair_coeff 11     56      1.006900148654086141E-01 3.351458328501519368E+00
        pair_coeff 12      56      6.630154972997068241E-02 3.581179283634555510E+00
        pair_coeff 13    56      1.052864867392752299E-02 4.876188605638604123E+00
        pair_coeff 14    56      3.877704325548127218E-02 4.239645007324696735E+00
        pair_coeff 15    56      8.065754277175206377E-02 3.817953007077415251E+00
        pair_coeff 16    56      1.172230999498745652E-01 3.663600408719620116E+00
        pair_coeff 17    56      1.415057111515590771E-01 3.644995692608442361E+00
        pair_coeff 18   56      8.714838644978782634E-02 3.763326663382849269E+00
        pair_coeff 19    56      8.924885764206048899E-02 3.660311093966183371E+00
        pair_coeff 20     56      4.331183156556572822E-02 2.915407359639444529E+00
        pair_coeff 21      56      0.000000000000000000E+00 0.000000000000000000E+00
        pair_coeff 22    56      0.000000000000000000E+00 0.000000000000000000E+00
        pair_coeff 23      56      1.737850588051431666E-01 3.441721286142719993E+00
        pair_coeff 24   56      3.676802214070164498E-01 2.331880049283297840E+00
        pair_coeff 25   56      3.676802214070164498E-01 2.331880049283297840E+00
        pair_coeff 26     56      0.000000000000000000E+00 0.000000000000000000E+00
        pair_coeff 27   56      2.709162932331031781E-01 2.453646898458591963E+00
        pair_coeff 28   56      7.038735361689542336E-02 2.631207833337182223E+00
        pair_coeff 29   56      8.962608232733035307E-02 3.173996968575379718E+00
        pair_coeff 30     56      1.256564845410435005E-01 3.494459690227617266E+00
        pair_coeff 31      56      8.499913033581890653E-02 3.244824150032262100E+00
        pair_coeff 32     56      1.410540186851716171E-01 3.525057684932574986E+00
        pair_coeff 33     56      2.151119962679723108E-01 3.615821387226038297E+00
        pair_coeff 34   56      1.269630472365963769E-01 3.591194913038851411E+00
        pair_coeff 35   56      9.335763782481623640E-02 3.373010538257620983E+00
        pair_coeff 36    56      1.838222906573640236E-02 3.343270360670348218E+00
        pair_coeff 37    56      1.036857643481583074E-01 3.829812028396864854E+00
        pair_coeff 38   56      8.213171219204309925E-02 3.489442153850004225E+00
        pair_coeff 39  56      1.409186387258750672E-01 3.509881576780662371E+00
        pair_coeff 40   56      3.618604110595938922E-02 2.808278980140014092E+00
        pair_coeff 41  56      1.433735664130799115E-01 3.570551028367321855E+00
        pair_coeff 42  56      1.172230999498745652E-01 3.663600408719620116E+00
        pair_coeff 43  56      1.648590726968548470E-01 3.068979881992677683E+00
        pair_coeff 44   56      6.006149585721085732E-02 3.676278959205930619E+00
        pair_coeff 45  56      1.339404182663543053E-01 3.513741746503062924E+00
        pair_coeff 46   56      7.413624147890124361E-02 3.319620862051439580E+00
        pair_coeff 47   56      8.019708410451541203E-02 3.469393659665676477E+00
        pair_coeff 48  56      8.808073916348332921E-02 3.746722686727856910E+00
        pair_coeff 49   56      1.160312939550487005E-01 3.252970697627771912E+00
        pair_coeff 50  56      8.344727382835046003E-02 3.664574520351796316E+00
        pair_coeff 51  56      1.180008866429317071E-01 3.255796961067685569E+00
        pair_coeff 52  56      1.061554500800334505E-01 3.411602396114444158E+00
        pair_coeff 53   56      1.172230999498745652E-01 3.663600408719620116E+00
        pair_coeff 54      56      2.355507420287134279E-01 3.712968515405449921E+00
        pair_coeff 55  56      1.478995001499436579E-01 3.421967204782814687E+00
        pair_coeff 56      56      6.630154972997068241E-02 3.581179283634555510E+00
        pair_coeff 1      57     3.731714874568097806E-01 3.021498329079459921E+00
        pair_coeff 2     57     4.333660288663451210E-01 2.947120929208018492E+00
        pair_coeff 3     57     3.392468067789179420E-01 3.069878160802191225E+00
        pair_coeff 4     57     3.392468067789179420E-01 3.069878160802191225E+00
        pair_coeff 5     57     2.660524812168876263E-01 3.235891839220214727E+00
        pair_coeff 6      57     2.639217367579247409E-01 3.220946106087509531E+00
        pair_coeff 7     57     2.639217367579247409E-01 3.220946106087509531E+00
        pair_coeff 8     57     2.639217367579247409E-01 3.220946106087509531E+00
        pair_coeff 9     57     2.639217367579247409E-01 3.220946106087509531E+00
        pair_coeff 10     57     2.639217367579247409E-01 3.220946106087509531E+00
        pair_coeff 11     57     2.639217367579247409E-01 3.220946106087509531E+00
        pair_coeff 12      57     1.737850588051431666E-01 3.441721286142719993E+00
        pair_coeff 13    57     2.759696924716207450E-02 4.686300458613273712E+00
        pair_coeff 14    57     1.016397168676915763E-01 4.074545090238809841E+00
        pair_coeff 15    57     2.114139996840987690E-01 3.669274586167817986E+00
        pair_coeff 16    57     3.072571214561132247E-01 3.520932774360979955E+00
        pair_coeff 17    57     3.709050306349177539E-01 3.503052561617904459E+00
        pair_coeff 18   57     2.284273523866607036E-01 3.616775497184223198E+00
        pair_coeff 19    57     2.339329629063890137E-01 3.517771551839822930E+00
        pair_coeff 20     57     1.135259918695059600E-01 2.801875799210098883E+00
        pair_coeff 21      57     0.000000000000000000E+00 0.000000000000000000E+00
        pair_coeff 22    57     0.000000000000000000E+00 0.000000000000000000E+00
        pair_coeff 23      57     4.555134350088204109E-01 3.307694050845144673E+00
        pair_coeff 24   57     9.637380899683938296E-01 2.241072162744267793E+00
        pair_coeff 25   57     9.637380899683938296E-01 2.241072162744267793E+00
        pair_coeff 26     57     0.000000000000000000E+00 0.000000000000000000E+00
        pair_coeff 27   57     7.101071414248384395E-01 2.358097177009347067E+00
        pair_coeff 28   57     1.844944867392919463E-01 2.528743548150760745E+00
        pair_coeff 29   57     2.349217182881164212E-01 3.050395432258705242E+00
        pair_coeff 30     57     3.293621287006147091E-01 3.358378720212484847E+00
        pair_coeff 31      57     2.227938701879095817E-01 3.118464467275081642E+00
        pair_coeff 32     57     3.697210854307304562E-01 3.387785170252723521E+00
        pair_coeff 33     57     5.638367590708479593E-01 3.475014359704387434E+00
        pair_coeff 34   57     3.327868009112045500E-01 3.451346887707100741E+00
        pair_coeff 35   57     2.447026147257768958E-01 3.241659031413521852E+00
        pair_coeff 36    57     4.818223363057468761E-02 3.213076993445320717E+00
        pair_coeff 37    57     2.717739891131936147E-01 3.680671794426697563E+00
        pair_coeff 38   57     2.152779911056781903E-01 3.353556576335538608E+00
        pair_coeff 39  57     3.693662367992399664E-01 3.373200048891741964E+00
        pair_coeff 40   57     9.484836036467202136E-02 2.698919204504523606E+00
        pair_coeff 41  57     3.758009242872520916E-01 3.431506915542800851E+00
        pair_coeff 42  57     3.072571214561132247E-01 3.520932774360979955E+00
        pair_coeff 43  57     4.321172545720066149E-01 2.949467912669808012E+00
        pair_coeff 44   57     1.574290590790217992E-01 3.533117597747393646E+00
        pair_coeff 45  57     3.510754056218069463E-01 3.376909896193278637E+00
        pair_coeff 46   57     1.943208135778947410E-01 3.190348451711801925E+00
        pair_coeff 47   57     2.102070771175983122E-01 3.334288809009665400E+00
        pair_coeff 48  57     2.308711711486143847E-01 3.600818111261308019E+00
        pair_coeff 49   57     3.041332416110918979E-01 3.126293772665116322E+00
        pair_coeff 50  57     2.187262507204020268E-01 3.521868952215817750E+00
        pair_coeff 51  57     3.092958024031092212E-01 3.129009975979999414E+00
        pair_coeff 52  57     2.782473593721414562E-01 3.278748048225554435E+00
        pair_coeff 53   57     3.072571214561132247E-01 3.520932774360979955E+00
        pair_coeff 54      57     6.174093927181751873E-01 3.568378392181247971E+00
        pair_coeff 55  57     3.876639902911756530E-01 3.288709231343011297E+00
        pair_coeff 56      57     1.737850588051431666E-01 3.441721286142719993E+00
        pair_coeff 57     57     4.555134350088204109E-01 3.307694050845144673E+00
        pair_coeff 1      58   0.000000000000000000E+00 0.000000000000000000E+00
        pair_coeff 2     58   0.000000000000000000E+00 0.000000000000000000E+00
        pair_coeff 3     58   0.000000000000000000E+00 0.000000000000000000E+00
        pair_coeff 4     58   0.000000000000000000E+00 0.000000000000000000E+00
        pair_coeff 5     58   0.000000000000000000E+00 0.000000000000000000E+00
        pair_coeff 6      58   0.000000000000000000E+00 0.000000000000000000E+00
        pair_coeff 7     58   0.000000000000000000E+00 0.000000000000000000E+00
        pair_coeff 8     58   0.000000000000000000E+00 0.000000000000000000E+00
        pair_coeff 9     58   0.000000000000000000E+00 0.000000000000000000E+00
        pair_coeff 10     58   0.000000000000000000E+00 0.000000000000000000E+00
        pair_coeff 11     58   0.000000000000000000E+00 0.000000000000000000E+00
        pair_coeff 12      58   0.000000000000000000E+00 0.000000000000000000E+00
        pair_coeff 13    58   0.000000000000000000E+00 0.000000000000000000E+00
        pair_coeff 14    58   0.000000000000000000E+00 0.000000000000000000E+00
        pair_coeff 15    58   0.000000000000000000E+00 0.000000000000000000E+00
        pair_coeff 16    58   0.000000000000000000E+00 0.000000000000000000E+00
        pair_coeff 17    58   0.000000000000000000E+00 0.000000000000000000E+00
        pair_coeff 18   58   0.000000000000000000E+00 0.000000000000000000E+00
        pair_coeff 19    58   0.000000000000000000E+00 0.000000000000000000E+00
        pair_coeff 20     58   0.000000000000000000E+00 0.000000000000000000E+00
        pair_coeff 21      58   0.000000000000000000E+00 0.000000000000000000E+00
        pair_coeff 22    58   0.000000000000000000E+00 0.000000000000000000E+00
        pair_coeff 23      58   0.000000000000000000E+00 0.000000000000000000E+00
        pair_coeff 24   58   0.000000000000000000E+00 0.000000000000000000E+00
        pair_coeff 25   58   0.000000000000000000E+00 0.000000000000000000E+00
        pair_coeff 26     58   0.000000000000000000E+00 0.000000000000000000E+00
        pair_coeff 27   58   0.000000000000000000E+00 0.000000000000000000E+00
        pair_coeff 28   58   0.000000000000000000E+00 0.000000000000000000E+00
        pair_coeff 29   58   0.000000000000000000E+00 0.000000000000000000E+00
        pair_coeff 30     58   0.000000000000000000E+00 0.000000000000000000E+00
        pair_coeff 31      58   0.000000000000000000E+00 0.000000000000000000E+00
        pair_coeff 32     58   0.000000000000000000E+00 0.000000000000000000E+00
        pair_coeff 33     58   0.000000000000000000E+00 0.000000000000000000E+00
        pair_coeff 34   58   0.000000000000000000E+00 0.000000000000000000E+00
        pair_coeff 35   58   0.000000000000000000E+00 0.000000000000000000E+00
        pair_coeff 36    58   0.000000000000000000E+00 0.000000000000000000E+00
        pair_coeff 37    58   0.000000000000000000E+00 0.000000000000000000E+00
        pair_coeff 38   58   0.000000000000000000E+00 0.000000000000000000E+00
        pair_coeff 39  58   0.000000000000000000E+00 0.000000000000000000E+00
        pair_coeff 40   58   0.000000000000000000E+00 0.000000000000000000E+00
        pair_coeff 41  58   0.000000000000000000E+00 0.000000000000000000E+00
        pair_coeff 42  58   0.000000000000000000E+00 0.000000000000000000E+00
        pair_coeff 43  58   0.000000000000000000E+00 0.000000000000000000E+00
        pair_coeff 44   58   0.000000000000000000E+00 0.000000000000000000E+00
        pair_coeff 45  58   0.000000000000000000E+00 0.000000000000000000E+00
        pair_coeff 46   58   0.000000000000000000E+00 0.000000000000000000E+00
        pair_coeff 47   58   0.000000000000000000E+00 0.000000000000000000E+00
        pair_coeff 48  58   0.000000000000000000E+00 0.000000000000000000E+00
        pair_coeff 49   58   0.000000000000000000E+00 0.000000000000000000E+00
        pair_coeff 50  58   0.000000000000000000E+00 0.000000000000000000E+00
        pair_coeff 51  58   0.000000000000000000E+00 0.000000000000000000E+00
        pair_coeff 52  58   0.000000000000000000E+00 0.000000000000000000E+00
        pair_coeff 53   58   0.000000000000000000E+00 0.000000000000000000E+00
        pair_coeff 54      58   0.000000000000000000E+00 0.000000000000000000E+00
        pair_coeff 55  58   0.000000000000000000E+00 0.000000000000000000E+00
        pair_coeff 56      58   0.000000000000000000E+00 0.000000000000000000E+00
        pair_coeff 57     58   0.000000000000000000E+00 0.000000000000000000E+00
        pair_coeff 58   58   0.000000000000000000E+00 0.000000000000000000E+00
        pair_coeff 1      59  3.175870057215742226E-01 3.004156156701421221E+00
        pair_coeff 2     59  3.688154752311860185E-01 2.930205652875953248E+00
        pair_coeff 3     59  2.887154597468856720E-01 3.052258307853131569E+00
        pair_coeff 4     59  2.887154597468856720E-01 3.052258307853131569E+00
        pair_coeff 5     59  2.264235444414708642E-01 3.217319135230157112E+00
        pair_coeff 6      59  2.246101777309229275E-01 3.202459184531222913E+00
        pair_coeff 7     59  2.246101777309229275E-01 3.202459184531222913E+00
        pair_coeff 8     59  2.246101777309229275E-01 3.202459184531222913E+00
        pair_coeff 9     59  2.246101777309229275E-01 3.202459184531222913E+00
        pair_coeff 10     59  2.246101777309229275E-01 3.202459184531222913E+00
        pair_coeff 11     59  2.246101777309229275E-01 3.202459184531222913E+00
        pair_coeff 12      59  1.478995001499436579E-01 3.421967204782814687E+00
        pair_coeff 13    59  2.348635714353968298E-02 4.659402998639063931E+00
        pair_coeff 14    59  8.650032070345334279E-02 4.051158857442665351E+00
        pair_coeff 15    59  1.799235509252720133E-01 3.648214441350505322E+00
        pair_coeff 16    59  2.614906885166861650E-01 3.500724051252714020E+00
        pair_coeff 17    59  3.156581412186418856E-01 3.482946463663709302E+00
        pair_coeff 18   59  1.944027379041995962E-01 3.596016675800414841E+00
        pair_coeff 19    59  1.990882790519060419E-01 3.497580972864009485E+00
        pair_coeff 20     59  9.661611629313200666E-02 2.785794170892084587E+00
        pair_coeff 21      59  0.000000000000000000E+00 0.000000000000000000E+00
        pair_coeff 22    59  0.000000000000000000E+00 0.000000000000000000E+00
        pair_coeff 23      59  3.876639902911756530E-01 3.288709231343011297E+00
        pair_coeff 24   59  8.201877811694162634E-01 2.228209319371530661E+00
        pair_coeff 25   59  8.201877811694162634E-01 2.228209319371530661E+00
        pair_coeff 26     59  0.000000000000000000E+00 0.000000000000000000E+00
        pair_coeff 27   59  6.043355625145997445E-01 2.344562657617333290E+00
        pair_coeff 28   59  1.570137418991634226E-01 2.514229587944387223E+00
        pair_coeff 29   59  1.999297577597621556E-01 3.032887402253098053E+00
        pair_coeff 30     59  2.803031200614393148E-01 3.339102991308009027E+00
        pair_coeff 31      59  1.896083717657784939E-01 3.100565748673854038E+00
        pair_coeff 32     59  3.146505465202936724E-01 3.368340660276711862E+00
        pair_coeff 33     59  4.798523843539687084E-01 3.455069189633579008E+00
        pair_coeff 34   59  2.832176819438365079E-01 3.431537559306359508E+00
        pair_coeff 35   59  2.082537742436552652E-01 3.223053226084240830E+00
        pair_coeff 36    59  4.100541392375962879E-02 3.194635237397348781E+00
        pair_coeff 37    59  2.312928247109353463E-01 3.659546234266159548E+00
        pair_coeff 38   59  1.832119947291552531E-01 3.334308524577047184E+00
        pair_coeff 39  59  3.143485531522378085E-01 3.353839251584496139E+00
        pair_coeff 40   59  8.072054746493292909E-02 2.683428505195357694E+00
        pair_coeff 41  59  3.198247837881820765E-01 3.411811460518701100E+00
        pair_coeff 42  59  2.614906885166861650E-01 3.500724051252714020E+00
        pair_coeff 43  59  3.677527078379324021E-01 2.932539165606559806E+00
        pair_coeff 44   59  1.339797523846405214E-01 3.512838938705180603E+00
        pair_coeff 45  59  2.987821701324951396E-01 3.357527805870319515E+00
        pair_coeff 46   59  1.653764218541119713E-01 3.172037148255793415E+00
        pair_coeff 47   59  1.788964013789737795E-01 3.315151346404604737E+00
        pair_coeff 48  59  1.964825460064327234E-01 3.580150878787119240E+00
        pair_coeff 49   59  2.588321155025055109E-01 3.108350117033022997E+00
        pair_coeff 50  59  1.861466306346315491E-01 3.501654855827156965E+00
        pair_coeff 51  59  2.632257047206049139E-01 3.111050730444828272E+00
        pair_coeff 52  59  2.368019762580622356E-01 3.259929367013902457E+00
        pair_coeff 53   59  2.614906885166861650E-01 3.500724051252714020E+00
        pair_coeff 54      59  5.254452897086219210E-01 3.547897350510067938E+00
        pair_coeff 55  59  3.299208273968177729E-01 3.269833376988799500E+00
        pair_coeff 56      59  1.478995001499436579E-01 3.421967204782814687E+00
        pair_coeff 57     59  3.876639902911756530E-01 3.288709231343011297E+00
        pair_coeff 58   59  0.000000000000000000E+00 0.000000000000000000E+00
        pair_coeff 59  59  3.299208273968177729E-01 3.269833376988799500E+00
        pair_coeff 1      60  4.213927930353735807E-01 3.280869740545562685E+00
        pair_coeff 2     60  4.893656869531686771E-01 3.200107637098358104E+00
        pair_coeff 3     60  3.830843573048849926E-01 3.333402593012885884E+00
        pair_coeff 4     60  3.830843573048849926E-01 3.333402593012885884E+00
        pair_coeff 5     60  3.004318441315838584E-01 3.513667214970925379E+00
        pair_coeff 6      60  2.980257643827635139E-01 3.497438510452560934E+00
        pair_coeff 7     60  2.980257643827635139E-01 3.497438510452560934E+00
        pair_coeff 8     60  2.980257643827635139E-01 3.497438510452560934E+00
        pair_coeff 9     60  2.980257643827635139E-01 3.497438510452560934E+00
        pair_coeff 10     60  2.980257643827635139E-01 3.497438510452560934E+00
        pair_coeff 11     60  2.980257643827635139E-01 3.497438510452560934E+00
        pair_coeff 12      60  1.962416041396830291E-01 3.737165469999586431E+00
        pair_coeff 13    60  3.116305597093314839E-02 5.088581787981105720E+00
        pair_coeff 14    60  1.147736244965881502E-01 4.424312125013074137E+00
        pair_coeff 15    60  2.387329654277859925E-01 3.984252396783054539E+00
        pair_coeff 16    60  3.469609574750426306E-01 3.823176629528523662E+00
        pair_coeff 17    60  4.188334641408217873E-01 3.803761543847788751E+00
        pair_coeff 18   60  2.579447874860245626E-01 3.927246681838655107E+00
        pair_coeff 19    60  2.641618342654674101E-01 3.819744041394028677E+00
        pair_coeff 20     60  1.281958466924380258E-01 3.042394376963291069E+00
        pair_coeff 21      60  0.000000000000000000E+00 0.000000000000000000E+00
        pair_coeff 22    60  0.000000000000000000E+00 0.000000000000000000E+00
        pair_coeff 23      60  5.143749860195843127E-01 3.591633070903154312E+00
        pair_coeff 24   60  1.088272547975307258E+00 2.433450243663300760E+00
        pair_coeff 25   60  1.088272547975307258E+00 2.433450243663300760E+00
        pair_coeff 26     60  0.000000000000000000E+00 0.000000000000000000E+00
        pair_coeff 27   60  8.018673498307147263E-01 2.560520917340021185E+00
        pair_coeff 28   60  2.083349068186673148E-01 2.745815911556464428E+00
        pair_coeff 29   60  2.652783568454061824E-01 3.312247428395911797E+00
        pair_coeff 30     60  3.719223788481205717E-01 3.646668612851485136E+00
        pair_coeff 31      60  2.515833454197372587E-01 3.386159644432585214E+00
        pair_coeff 32     60  4.174965292645979598E-01 3.678599370907961408E+00
        pair_coeff 33     60  6.366958749718966137E-01 3.773316487051947554E+00
        pair_coeff 34   60  3.757895879907217074E-01 3.747617352300228966E+00
        pair_coeff 35   60  2.763231429740154454E-01 3.519929474384682955E+00
        pair_coeff 36    60  5.440835296030136631E-02 3.488893897568208224E+00
        pair_coeff 37    60  3.068926865963431116E-01 3.996627964011863376E+00
        pair_coeff 38   60  2.430962627110289931E-01 3.641432526576616979E+00
        pair_coeff 39  60  4.170958270111979060E-01 3.662762233791288402E+00
        pair_coeff 40   60  1.071046873416893891E-01 2.930599783893948374E+00
        pair_coeff 41  60  4.243620062988024966E-01 3.726074277561229664E+00
        pair_coeff 42  60  3.469609574750426306E-01 3.823176629528523662E+00
        pair_coeff 43  60  4.879555457568295340E-01 3.202656090277113510E+00
        pair_coeff 44   60  1.777720783609382238E-01 3.836407422330105899E+00
        pair_coeff 45  60  3.964414504152660723E-01 3.666790541745827525E+00
        pair_coeff 46   60  2.194309938750947930E-01 3.464214292717012533E+00
        pair_coeff 47   60  2.373700840491974606E-01 3.620510775874676401E+00
        pair_coeff 48  60  2.607043970713927572E-01 3.909919482247368627E+00
        pair_coeff 49   60  3.434334091567836644E-01 3.394661032931277411E+00
        pair_coeff 50  60  2.469901072275602905E-01 3.824193170747873793E+00
        pair_coeff 51  60  3.492630772436706166E-01 3.397610400527878660E+00
        pair_coeff 52  60  3.142025472514550222E-01 3.560202285987479787E+00
        pair_coeff 53   60  3.469609574750426306E-01 3.823176629528523662E+00
        pair_coeff 54      60  6.971911766809288924E-01 3.874695073318440208E+00
        pair_coeff 55  60  4.377580204247071283E-01 3.571018556827535662E+00
        pair_coeff 56      60  1.962416041396830291E-01 3.737165469999586431E+00
        pair_coeff 57     60  5.143749860195843127E-01 3.591633070903154312E+00
        pair_coeff 58   60  0.000000000000000000E+00 0.000000000000000000E+00
        pair_coeff 59  60  4.377580204247071283E-01 3.571018556827535662E+00
        pair_coeff 60  60  5.808426402121911192E-01 3.899945979801004992E+00
        pair_coeff 1      61  1.910810716445957014E-01 3.063480889575645350E+00
        pair_coeff 2     61  2.219034625996930687E-01 2.988070044257751245E+00
        pair_coeff 3     61  1.557302947388717884E-01 3.169732425659423480E+00
        pair_coeff 4     61  1.737100651314506250E-01 3.112532940505829959E+00
        pair_coeff 5     61  1.362311830710550009E-01 3.280853315316931695E+00
        pair_coeff 6      61  1.351401432989809970E-01 3.265699916954241999E+00
        pair_coeff 7     61  9.147486144193246738E-02 3.485165270484214428E+00
        pair_coeff 8     61  6.708554049685398757E-02 3.670023545392655517E+00
        pair_coeff 9     61  1.117970875851971996E-01 3.370558915160181357E+00
        pair_coeff 10     61  9.581863977856053260E-02 3.458321283688134518E+00
        pair_coeff 11     61  1.037391321796109073E-01 3.412845037342698173E+00
        pair_coeff 12      61  8.898599273651414121E-02 3.489542683465986617E+00
        pair_coeff 13    61  1.413092541937840431E-02 4.751414806224702581E+00
        pair_coeff 14    61  5.204423883799429856E-02 4.131159331623315722E+00
        pair_coeff 15    61  1.082537519026915002E-01 3.720257749325097230E+00
        pair_coeff 16    61  1.573298657900891462E-01 3.569854784934338721E+00
        pair_coeff 17    61  1.899205408620464608E-01 3.551726133492507209E+00
        pair_coeff 18   61  1.169653758502452456E-01 3.667029205634201983E+00
        pair_coeff 19    61  1.197845032314313607E-01 3.566649638438623260E+00
        pair_coeff 20     61  5.813056172586479609E-02 2.840806788882025202E+00
        pair_coeff 21      61  0.000000000000000000E+00 0.000000000000000000E+00
        pair_coeff 22    61  0.000000000000000000E+00 0.000000000000000000E+00
        pair_coeff 23      61  2.332439595082145267E-01 3.353653191135248957E+00
        pair_coeff 24   61  1.570138934856017687E-01 2.750027377697141340E+00
        pair_coeff 25   61  8.635572240102759589E-02 3.038166082187003791E+00
        pair_coeff 26     61  0.000000000000000000E+00 0.000000000000000000E+00
        pair_coeff 27   61  3.636077195786372451E-01 2.390862032921029723E+00
        pair_coeff 28   61  9.446971546223430216E-02 2.563879469944211564E+00
        pair_coeff 29   61  1.202907917456541853E-01 3.092779506921127464E+00
        pair_coeff 30     61  1.686486525006622439E-01 3.405042104545177306E+00
        pair_coeff 31      61  1.140807722516042760E-01 3.161794335073641271E+00
        pair_coeff 32     61  1.893143061255012083E-01 3.434857145930944711E+00
        pair_coeff 33     61  2.887105145415023166E-01 3.523298351516439553E+00
        pair_coeff 34   61  1.704022431634715784E-01 3.499302029072553388E+00
        pair_coeff 35   61  1.252990633735053816E-01 3.286700640433966480E+00
        pair_coeff 36    61  2.467153345263567096E-02 3.257721466009803724E+00
        pair_coeff 37    61  1.391608599006002867E-01 3.731813317421747822E+00
        pair_coeff 38   61  1.102322943328560290E-01 3.400152958828419614E+00
        pair_coeff 39  61  1.891326072040779016E-01 3.420069369902248191E+00
        pair_coeff 40   61  4.856675001010610920E-02 2.736419651778293272E+00
        pair_coeff 41  61  1.924274649899363476E-01 3.479186388103933769E+00
        pair_coeff 42  61  1.573298657900891462E-01 3.569854784934338721E+00
        pair_coeff 43  61  2.212640323687539434E-01 2.990449638154641487E+00
        pair_coeff 44   61  8.061096393464804721E-02 3.582208911768658854E+00
        pair_coeff 45  61  1.797668551567465633E-01 3.423830764109261793E+00
        pair_coeff 46   61  9.950124955784923897E-02 3.234677119905607690E+00
        pair_coeff 47   61  1.076357516932685832E-01 3.380617473265008499E+00
        pair_coeff 48  61  1.182167241542694813E-01 3.650850097953766138E+00
        pair_coeff 49   61  1.557302947388717884E-01 3.169732425659423480E+00
        pair_coeff 50  61  1.119979628381875536E-01 3.570803970621432288E+00
        pair_coeff 51  61  1.583737647834132234E-01 3.172486369577665499E+00
        pair_coeff 52  61  1.424755250553842723E-01 3.324304994910451949E+00
        pair_coeff 53   61  1.573298657900891462E-01 3.569854784934338721E+00
        pair_coeff 54      61  3.161421822659541414E-01 3.617959641418169170E+00
        pair_coeff 55  61  1.985019037967935274E-01 3.334404584847074471E+00
        pair_coeff 56      61  8.898599273651414121E-02 3.489542683465986617E+00
        pair_coeff 57     61  2.332439595082145267E-01 3.353653191135248957E+00
        pair_coeff 58   61  0.000000000000000000E+00 0.000000000000000000E+00
        pair_coeff 59  61  1.985019037967935274E-01 3.334404584847074471E+00
        pair_coeff 60  61  2.633837976894515820E-01 3.641537434982425658E+00
        pair_coeff 61  61  1.194317016050606556E-01 3.400250916053718875E+00
        pair_coeff 1      62   3.022272329752703768E-01 3.080610167712853453E+00
        pair_coeff 2     62   1.855061234448970586E-01 3.341688535145806327E+00
        pair_coeff 3     62   2.783347785346825254E-01 3.123185389796383937E+00
        pair_coeff 4     62   2.783347785346825254E-01 3.123185389796383937E+00
        pair_coeff 5     62   2.434842638240715673E-01 3.232674486185113771E+00
        pair_coeff 6      62   1.146462465840507594E-01 3.643241170326683598E+00
        pair_coeff 7     62   9.900340316124917051E-02 3.733414477700354173E+00
        pair_coeff 8     62   7.260679827666578767E-02 3.931440254472196472E+00
        pair_coeff 9     62   1.209981842003316904E-01 3.610644682584218224E+00
        pair_coeff 10     62   1.037046820823140647E-01 3.704658386908206591E+00
        pair_coeff 11     62   1.122770449157311640E-01 3.655942855987651008E+00
        pair_coeff 12      62   9.630969619111764968E-02 3.738103694920388520E+00
        pair_coeff 13    62   1.529392539418433263E-02 5.089859289414571109E+00
        pair_coeff 14    62   5.632757107994194185E-02 4.425422859853802571E+00
        pair_coeff 15    62   1.171632257693376034E-01 3.985252653506883291E+00
        pair_coeff 16    62   1.702783900034554321E-01 3.824136447770248637E+00
        pair_coeff 17    62   2.055513348604910695E-01 3.804716487882746634E+00
        pair_coeff 18   62   1.265918316646999775E-01 3.928232627132385968E+00
        pair_coeff 19    62   1.296429781795231384E-01 3.820702997875749851E+00
        pair_coeff 20     62   6.291480902858739843E-02 3.043158177829559552E+00
        pair_coeff 21      62   0.000000000000000000E+00 0.000000000000000000E+00
        pair_coeff 22    62   0.000000000000000000E+00 0.000000000000000000E+00
        pair_coeff 23      62   2.524403469337466177E-01 3.592534759544063760E+00
        pair_coeff 24   62   5.340926503741362241E-01 2.434061167552131533E+00
        pair_coeff 25   62   5.340926503741362241E-01 2.434061167552131533E+00
        pair_coeff 26     62   0.000000000000000000E+00 0.000000000000000000E+00
        pair_coeff 27   62   3.935332733664513305E-01 2.561163742645501173E+00
        pair_coeff 28   62   1.022447389261494227E-01 2.746505255642734511E+00
        pair_coeff 29   62   1.301909351274692650E-01 3.313078976558852418E+00
        pair_coeff 30     62   1.825287327352057842E-01 3.647584118305537970E+00
        pair_coeff 31      62   8.776721851084816339E-02 3.585264437649749780E+00
        pair_coeff 32     62   2.048952059406277393E-01 3.679522892660245681E+00
        pair_coeff 33     62   3.124718968411722697E-01 3.774263787777763390E+00
        pair_coeff 34   62   1.844266469887313464E-01 3.748558201192733641E+00
        pair_coeff 35   62   1.356113963044227322E-01 3.520813161654846368E+00
        pair_coeff 36    62   2.670204397705544519E-02 3.489769793277673227E+00
        pair_coeff 37    62   1.506140430259195195E-01 3.997631327653401900E+00
        pair_coeff 38   62   1.193046057156692125E-01 3.642346717497859210E+00
        pair_coeff 39  62   2.046985528789223296E-01 3.663681779589916143E+00
        pair_coeff 40   62   5.256387881532230411E-02 2.931335518442557131E+00
        pair_coeff 41  62   2.082645832460674196E-01 3.727009718009888228E+00
        pair_coeff 42  62   1.702783900034554321E-01 3.824136447770248637E+00
        pair_coeff 43  62   1.845251754501273656E-01 3.345696810660210740E+00
        pair_coeff 44   62   8.724538781296764522E-02 3.837370562196102064E+00
        pair_coeff 45  62   1.945619829925733513E-01 3.667711098861439201E+00
        pair_coeff 46   62   1.076903771128106951E-01 3.465083992548747993E+00
        pair_coeff 47   62   1.164943630575195482E-01 3.621419714337055673E+00
        pair_coeff 48  62   1.279461681314143506E-01 3.910901077503457834E+00
        pair_coeff 49   62   1.685471714460022030E-01 3.395513271239786857E+00
        pair_coeff 50  62   1.212155918393642284E-01 3.825153244194864577E+00
        pair_coeff 51  62   1.714082037169344097E-01 3.398463379282643082E+00
        pair_coeff 52  62   1.542015109432330056E-01 3.561096083849689897E+00
        pair_coeff 53   62   1.702783900034554321E-01 3.824136447770248637E+00
        pair_coeff 54      62   3.421612389871924731E-01 3.875667825396847732E+00
        pair_coeff 55  62   2.148389590329646270E-01 3.571915070142120285E+00
        pair_coeff 56      62   9.630969619111764968E-02 3.738103694920388520E+00
        pair_coeff 57     62   2.524403469337466177E-01 3.592534759544063760E+00
        pair_coeff 58   62   0.000000000000000000E+00 0.000000000000000000E+00
        pair_coeff 59  62   2.148389590329646270E-01 3.571915070142120285E+00
        pair_coeff 60  62   2.850607467204795409E-01 3.900925071183873882E+00
        pair_coeff 61  62   2.134587638969343837E-01 3.350318751416838214E+00
        pair_coeff 62   62   1.398995591837953467E-01 3.901904408370130639E+00
        pair_coeff 1      63   1.498564773336243661E-01 3.117191049441867978E+00
        pair_coeff 2     63   1.740291224406275705E-01 3.040458071326784140E+00
        pair_coeff 3     63   1.362331612123857949E-01 3.167103100349917710E+00
        pair_coeff 4     63   1.362331612123857949E-01 3.167103100349917710E+00
        pair_coeff 5     63   1.068401230028258736E-01 3.338374534614535705E+00
        pair_coeff 6      63   1.059844685129975872E-01 3.322955460872134559E+00
        pair_coeff 7     63   1.059844685129975872E-01 3.322955460872134559E+00
        pair_coeff 8     63   1.059844685129975872E-01 3.322955460872134559E+00
        pair_coeff 9     63   1.059844685129975872E-01 3.322955460872134559E+00
        pair_coeff 10     63   1.059844685129975872E-01 3.322955460872134559E+00
        pair_coeff 11     63   1.059844685129975872E-01 3.322955460872134559E+00
        pair_coeff 12      63   6.978779891046651973E-02 3.550722727391420364E+00
        pair_coeff 13    63   1.108226307601466523E-02 4.834718491813685404E+00
        pair_coeff 14    63   4.081600668577894941E-02 4.203588452656632057E+00
        pair_coeff 15    63   8.489865468443062724E-02 3.785482781131149110E+00
        pair_coeff 16    63   1.233868915625870588E-01 3.632442892420324476E+00
        pair_coeff 17    63   1.489463241017357775E-01 3.613996402283818909E+00
        pair_coeff 18   63   9.173079805373214601E-02 3.731321013537728604E+00
        pair_coeff 19    63   9.394171562323941349E-02 3.629181552027246127E+00
        pair_coeff 20     63   4.558924194158552046E-02 2.890612938252534736E+00
        pair_coeff 21      63   0.000000000000000000E+00 0.000000000000000000E+00
        pair_coeff 22    63   0.000000000000000000E+00 0.000000000000000000E+00
        pair_coeff 23      63   1.829229752084453597E-01 3.412450766679025804E+00
        pair_coeff 24   63   3.870134779566036798E-01 2.312048303858599940E+00
        pair_coeff 25   63   3.870134779566036798E-01 2.312048303858599940E+00
        pair_coeff 26     63   0.000000000000000000E+00 0.000000000000000000E+00
        pair_coeff 27   63   2.851615365059002039E-01 2.432779572685431102E+00
        pair_coeff 28   63   7.408844137221298753E-02 2.608830419916517318E+00
        pair_coeff 29   63   9.433877542933588600E-02 3.147003341746720917E+00
        pair_coeff 30     63   1.322637179773560601E-01 3.464740650865038685E+00
        pair_coeff 31      63   8.946853036768810663E-02 3.217228165191134082E+00
        pair_coeff 32     63   1.484708808708911920E-01 3.495078421360915844E+00
        pair_coeff 33     63   2.264229539116222045E-01 3.585070213178863874E+00
        pair_coeff 34   63   1.336389819799702339E-01 3.560653177709135697E+00
        pair_coeff 35   63   9.826654251385204264E-02 3.344324377350627486E+00
        pair_coeff 36    63   1.934879819235730755E-02 3.314837128566866298E+00
        pair_coeff 37    63   1.091377396407426786E-01 3.797240946022814256E+00
        pair_coeff 38   63   8.645033846078624407E-02 3.459765786709836810E+00
        pair_coeff 39  63   1.483283824011816243E-01 3.480031380188026713E+00
        pair_coeff 40   63   3.808876520011451883E-02 2.784395644531571179E+00
        pair_coeff 41  63   1.509123943959561898E-01 3.540184861358758983E+00
        pair_coeff 42  63   1.233868915625870588E-01 3.632442892420324476E+00
        pair_coeff 43  63   1.735276454440603799E-01 3.042879385206016973E+00
        pair_coeff 44   63   6.321963230446354942E-02 3.645013616697617920E+00
        pair_coeff 45  63   1.409832351434577025E-01 3.483858720647509788E+00
        pair_coeff 46   63   7.803445218669756434E-02 3.291388759862927227E+00
        pair_coeff 47   63   8.441398431086369336E-02 3.439887797278931458E+00
        pair_coeff 48  63   9.271217547193744135E-02 3.714858247335717678E+00
        pair_coeff 49   63   1.221324183648120482E-01 3.225305429523958711E+00
        pair_coeff 50  63   8.783507458389137879E-02 3.633408719606690873E+00
        pair_coeff 51  63   1.242055756137348393E-01 3.228107656677332127E+00
        pair_coeff 52  63   1.117372856834838307E-01 3.382588026258317004E+00
        pair_coeff 53   63   1.233868915625870588E-01 3.632442892420324476E+00
        pair_coeff 54      63   2.479364039733781833E-01 3.681391142293968244E+00
        pair_coeff 55  63   1.556763094898980793E-01 3.392864686204393188E+00
        pair_coeff 56      63   6.978779891046651973E-02 3.550722727391420364E+00
        pair_coeff 57     63   1.829229752084453597E-01 3.412450766679025804E+00
        pair_coeff 58   63   0.000000000000000000E+00 0.000000000000000000E+00
        pair_coeff 59  63   1.556763094898980793E-01 3.392864686204393188E+00
        pair_coeff 60  63   2.065603242057677535E-01 3.705382311070042789E+00
        pair_coeff 61  63   9.366502883019156567E-02 3.459865461359993954E+00
        pair_coeff 62   63   1.013738251713232619E-01 3.706312556747750619E+00
        pair_coeff 63   63   7.345736105118740034E-02 3.520525192477496734E+00
        pair_coeff 1      64   2.736888169216060152E-01 2.785635403427779710E+00
        pair_coeff 2     64   3.178362756028405567E-01 2.717064020712530947E+00
        pair_coeff 3     64   2.488080153832781527E-01 2.830238629172332043E+00
        pair_coeff 4     64   2.488080153832781527E-01 2.830238629172332043E+00
        pair_coeff 5     64   1.951263461191829751E-01 2.983293017984591344E+00
        pair_coeff 6      64   1.935636304516219763E-01 2.969513972355486864E+00
        pair_coeff 7     64   1.935636304516219763E-01 2.969513972355486864E+00
        pair_coeff 8     64   1.935636304516219763E-01 2.969513972355486864E+00
        pair_coeff 9     64   1.935636304516219763E-01 2.969513972355486864E+00
        pair_coeff 10     64   1.935636304516219763E-01 2.969513972355486864E+00
        pair_coeff 11     64   1.935636304516219763E-01 2.969513972355486864E+00
        pair_coeff 12      64   1.274562198392401313E-01 3.173055093606844679E+00
        pair_coeff 13    64   2.023997576918816488E-02 4.320480452686580541E+00
        pair_coeff 14    64   7.454388879317874750E-02 3.756479673344732539E+00
        pair_coeff 15    64   1.550537739325613118E-01 3.382845224091495684E+00
        pair_coeff 16    64   2.253463645766736745E-01 3.246083208107312768E+00
        pair_coeff 17    64   2.720265680439789557E-01 3.229598752975045173E+00
        pair_coeff 18   64   1.675315878319233176E-01 3.334444296805542329E+00
        pair_coeff 19    64   1.715694741126911615E-01 3.243168755602641173E+00
        pair_coeff 20     64   8.326143729888541012E-02 2.583156954670584149E+00
        pair_coeff 21      64   0.000000000000000000E+00 0.000000000000000000E+00
        pair_coeff 22    64   0.000000000000000000E+00 0.000000000000000000E+00
        pair_coeff 23      64   3.340794709935869244E-01 3.049490235709929387E+00
        pair_coeff 24   64   7.068180354917007469E-01 2.066130534673785490E+00
        pair_coeff 25   64   7.068180354917007469E-01 2.066130534673785490E+00
        pair_coeff 26     64   0.000000000000000000E+00 0.000000000000000000E+00
        pair_coeff 27   64   5.208018028082631590E-01 2.174020391731148916E+00
        pair_coeff 28   64   1.353106534166275132E-01 2.331345837965244083E+00
        pair_coeff 29   64   1.722946401549686202E-01 2.812276753150826814E+00
        pair_coeff 30     64   2.415584640648248682E-01 3.096218379836923162E+00
        pair_coeff 31      64   1.633999188005277048E-01 2.875032211922354808E+00
        pair_coeff 32     64   2.711582472501199992E-01 3.123329316001555611E+00
        pair_coeff 33     64   4.135252041325190309E-01 3.203749257330099631E+00
        pair_coeff 34   64   2.440701631553644779E-01 3.181929305529774155E+00
        pair_coeff 35   64   1.794680766699055796E-01 2.988610014058173281E+00
        pair_coeff 36    64   3.533747609942639034E-02 2.962259135058813886E+00
        pair_coeff 37    64   1.993225743407424921E-01 3.393352748295836552E+00
        pair_coeff 38   64   1.578876754398131910E-01 3.091772660117416471E+00
        pair_coeff 39  64   2.708979966538037076E-01 3.109882732220449419E+00
        pair_coeff 40   64   6.956301970462222539E-02 2.488237314150513413E+00
        pair_coeff 41  64   2.756172800531233036E-01 3.163638072888010022E+00
        pair_coeff 42  64   2.253463645766736745E-01 3.246083208107312768E+00
        pair_coeff 43  64   3.169204083120440441E-01 2.719227794943182452E+00
        pair_coeff 44   64   1.154605171527362945E-01 3.257316864959954650E+00
        pair_coeff 45  64   2.574832634447348223E-01 3.113302982989749168E+00
        pair_coeff 46   64   1.425174091778202701E-01 2.941304819144806793E+00
        pair_coeff 47   64   1.541686012426736752E-01 3.074008965101800328E+00
        pair_coeff 48  64   1.693239162605719161E-01 3.319732569598804695E+00
        pair_coeff 49   64   2.230552705147563208E-01 2.882250349383768562E+00
        pair_coeff 50  64   1.604166738389782576E-01 3.246946306442084040E+00
        pair_coeff 51  64   2.268415596685240676E-01 2.884754521583377418E+00
        pair_coeff 52  64   2.040702281868096157E-01 3.022803803713983939E+00
        pair_coeff 53   64   2.253463645766736745E-01 3.246083208107312768E+00
        pair_coeff 54      64   4.528160696330849611E-01 3.289825146160248348E+00
        pair_coeff 55  64   2.843178067782592411E-01 3.031987401164613072E+00
        pair_coeff 56      64   1.274562198392401313E-01 3.173055093606844679E+00
        pair_coeff 57     64   3.340794709935869244E-01 3.049490235709929387E+00
        pair_coeff 58   64   0.000000000000000000E+00 0.000000000000000000E+00
        pair_coeff 59  64   2.843178067782592411E-01 3.031987401164613072E+00
        pair_coeff 60  64   3.772492971989485633E-01 3.311264527979406402E+00
        pair_coeff 61  64   1.710641500693499129E-01 3.091861733013461677E+00
        pair_coeff 62   64   1.851430299952198100E-01 3.312095829382690759E+00
        pair_coeff 63   64   1.341580864437666998E-01 3.146069477063536013E+00
        pair_coeff 64   64   2.450182241873804789E-01 2.811442217672497801E+00
        pair_coeff 1      65   3.029649478331380430E-01 3.149235865916097055E+00
        pair_coeff 2     65   1.859589305005138193E-01 3.416130186772377453E+00
        pair_coeff 3     65   2.790141736360602920E-01 3.192759521648344645E+00
        pair_coeff 4     65   2.790141736360602920E-01 3.192759521648344645E+00
        pair_coeff 5     65   2.440785913349041991E-01 3.304687669158851371E+00
        pair_coeff 6      65   1.476955362938090210E-01 3.571891367671221396E+00
        pair_coeff 7     65   1.476955362938090210E-01 3.571891367671221396E+00
        pair_coeff 8     65   1.476955362938090210E-01 3.571891367671221396E+00
        pair_coeff 9     65   1.476955362938090210E-01 3.571891367671221396E+00
        pair_coeff 10     65   1.476955362938090210E-01 3.571891367671221396E+00
        pair_coeff 11     65   1.476955362938090210E-01 3.571891367671221396E+00
        pair_coeff 12      65   9.725336675705262279E-02 3.816721592661593387E+00
        pair_coeff 13    65   1.544377974741017144E-02 5.196906624050063428E+00
        pair_coeff 14    65   5.687948509255881524E-02 4.518496105074461866E+00
        pair_coeff 15    65   1.183112253160199800E-01 4.069068462579280343E+00
        pair_coeff 16    65   1.719468274611148095E-01 3.904563742659835412E+00
        pair_coeff 17    65   2.075653869462910639E-01 3.884735352042429479E+00
        pair_coeff 18   65   1.278322154490358076E-01 4.010849219979507829E+00
        pair_coeff 19    65   1.309132579896203075E-01 3.901058082191544596E+00
        pair_coeff 20     65   6.353126672484969706E-02 3.107160334527358625E+00
        pair_coeff 21      65   0.000000000000000000E+00 0.000000000000000000E+00
        pair_coeff 22    65   0.000000000000000000E+00 0.000000000000000000E+00
        pair_coeff 23      65   2.549138312710149123E-01 3.668091125393774021E+00
        pair_coeff 24   65   5.393258463406160885E-01 2.485253105385875294E+00
        pair_coeff 25   65   5.393258463406160885E-01 2.485253105385875294E+00
        pair_coeff 26     65   0.000000000000000000E+00 0.000000000000000000E+00
        pair_coeff 27   65   3.973892274549682413E-01 2.615028837263234429E+00
        pair_coeff 28   65   1.032465627763134441E-01 2.804268358797742167E+00
        pair_coeff 29   65   1.314665839799746549E-01 3.382757970360330546E+00
        pair_coeff 30     65   1.843172026331671987E-01 3.724298254300499433E+00
        pair_coeff 31      65   1.246796135270904909E-01 3.458243616680580335E+00
        pair_coeff 32     65   2.069028290834072914E-01 3.756908748730711789E+00
        pair_coeff 33     65   3.155335878587179343E-01 3.853642186220550769E+00
        pair_coeff 34   65   1.862337132055325029E-01 3.827395972798371737E+00
        pair_coeff 35   65   1.369401564205784128E-01 3.594861115296422938E+00
        pair_coeff 36    65   2.696367841209141095E-02 3.563164858567346549E+00
        pair_coeff 37    65   1.520898034616910699E-01 4.081707478711374293E+00
        pair_coeff 38   65   1.204735871292430399E-01 3.718950703139931591E+00
        pair_coeff 39  65   2.067042491574984375E-01 3.740734473418478423E+00
        pair_coeff 40   65   5.307891507056041597E-02 2.992985877780431903E+00
        pair_coeff 41  65   2.103052205329510593E-01 3.805394292865085681E+00
        pair_coeff 42  65   1.719468274611148095E-01 3.904563742659835412E+00
        pair_coeff 43  65   2.418208914499519191E-01 3.270833671068669624E+00
        pair_coeff 44   65   8.810024363484980636E-02 3.918076190256606139E+00
        pair_coeff 45  65   1.964683581952911540E-01 3.744848535285795421E+00
        pair_coeff 46   65   1.087455589183283500E-01 3.537959878619287846E+00
        pair_coeff 47   65   1.176358088917642403E-01 3.697583573880764529E+00
        pair_coeff 48  65   1.291998221004829195E-01 3.993153162004202006E+00
        pair_coeff 49   65   1.701986459179967992E-01 3.466925981245660537E+00
        pair_coeff 50  65   1.224032976537840489E-01 3.905601923830262834E+00
        pair_coeff 51  65   1.730877114197359179E-01 3.469938134462050350E+00
        pair_coeff 52  65   1.557124224386972067E-01 3.635991247444840813E+00
        pair_coeff 53   65   1.719468274611148095E-01 3.904563742659835412E+00
        pair_coeff 54      65   3.455138348607721954E-01 3.957178902039792057E+00
        pair_coeff 55  65   2.169440139762717490E-01 3.647037773160310081E+00
        pair_coeff 56      65   9.725336675705262279E-02 3.816721592661593387E+00
        pair_coeff 57     65   2.549138312710149123E-01 3.668091125393774021E+00
        pair_coeff 58   65   0.000000000000000000E+00 0.000000000000000000E+00
        pair_coeff 59  65   2.169440139762717490E-01 3.647037773160310081E+00
        pair_coeff 60  65   2.878538552736386591E-01 3.982967345388086056E+00
        pair_coeff 61  65   2.139798013299897272E-01 3.424952655417128344E+00
        pair_coeff 62   65   1.412703359737776110E-01 3.983967279496484881E+00
        pair_coeff 63   65   1.023671155538469490E-01 3.784261839422624174E+00
        pair_coeff 64   65   1.869571155422015130E-01 3.381754146132254668E+00
        pair_coeff 65   65   1.426545440355874161E-01 4.067756055235738799E+00
        pair_coeff 1      66   4.547358060207790653E-01 2.888292173693689513E+00
        pair_coeff 2     66   2.791154051078111320E-01 3.133071799912078959E+00
        pair_coeff 3     66   4.187868466206033369E-01 2.928209486837023423E+00
        pair_coeff 4     66   4.187868466206033369E-01 2.928209486837023423E+00
        pair_coeff 5     66   3.663502189178132196E-01 3.030863338829969500E+00
        pair_coeff 6      66   1.833232912906428147E-01 3.381325076733848078E+00
        pair_coeff 7     66   1.833232912906428147E-01 3.381325076733848078E+00
        pair_coeff 8     66   1.833232912906428147E-01 3.381325076733848078E+00
        pair_coeff 9     66   1.833232912906428147E-01 3.381325076733848078E+00
        pair_coeff 10     66   1.833232912906428147E-01 3.381325076733848078E+00
        pair_coeff 11     66   1.833232912906428147E-01 3.381325076733848078E+00
        pair_coeff 12      66   1.207132438148451475E-01 3.613093205741105152E+00
        pair_coeff 13    66   1.916919498251404980E-02 4.919643091161947979E+00
        pair_coeff 14    66   7.060020008554598880E-02 4.277426891393306008E+00
        pair_coeff 15    66   1.468507699407754774E-01 3.851976954281385979E+00
        pair_coeff 16    66   2.134245836275632802E-01 3.696248832273197671E+00
        pair_coeff 17    66   2.576352058285252822E-01 3.677478318972391413E+00
        pair_coeff 18   66   1.586684544241984962E-01 3.796863804219543059E+00
        pair_coeff 19    66   1.624927193500039502E-01 3.692930204568213970E+00
        pair_coeff 20     66   7.885655320479272035E-02 2.941388210084320498E+00
        pair_coeff 21      66   0.000000000000000000E+00 0.000000000000000000E+00
        pair_coeff 22    66   0.000000000000000000E+00 0.000000000000000000E+00
        pair_coeff 23      66   3.164052463383004721E-01 3.472392418844832296E+00
        pair_coeff 24   66   6.694243557407878464E-01 2.352660756519802554E+00
        pair_coeff 25   66   6.694243557407878464E-01 2.352660756519802554E+00
        pair_coeff 26     66   0.000000000000000000E+00 0.000000000000000000E+00
        pair_coeff 27   66   4.932491727818341110E-01 2.475512739231275461E+00
        pair_coeff 28   66   1.281521444557910949E-01 2.654656020425442797E+00
        pair_coeff 29   66   1.631795210249484540E-01 3.202282257861074122E+00
        pair_coeff 30     66   2.287789941124505622E-01 3.525600804795111287E+00
        pair_coeff 31      66   1.547553682540754594E-01 3.273740620549896452E+00
        pair_coeff 32     66   2.568128228971093829E-01 3.556471475605421873E+00
        pair_coeff 33     66   3.916479623591037629E-01 3.648044024788604123E+00
        pair_coeff 34   66   2.311578136403500405E-01 3.623198090106222846E+00
        pair_coeff 35   66   1.699734522439199091E-01 3.403069350469131837E+00
        pair_coeff 36    66   3.346797334466397600E-02 3.373064141271939320E+00
        pair_coeff 37    66   1.887775625586927686E-01 3.863941658073751118E+00
        pair_coeff 38   66   1.495347460074094303E-01 3.520538554301717582E+00
        pair_coeff 39  66   2.565663406640278366E-01 3.541160124536279596E+00
        pair_coeff 40   66   6.588284015242455716E-02 2.833305148764191372E+00
        pair_coeff 41  66   2.610359539032401366E-01 3.602370236056116504E+00
        pair_coeff 42  66   2.134245836275632802E-01 3.696248832273197671E+00
        pair_coeff 43  66   3.001539710398187233E-01 3.096329304387715808E+00
        pair_coeff 44   66   1.093521648109900685E-01 3.709040368522185549E+00
        pair_coeff 45  66   2.438613038865376503E-01 3.545054694423006580E+00
        pair_coeff 46   66   1.349776321912045940E-01 3.349203888541882890E+00
        pair_coeff 47   66   1.460124266502917378E-01 3.500311396601526681E+00
        pair_coeff 48  66   1.603659610572732153E-01 3.780111860100299648E+00
        pair_coeff 49   66   2.112546981841710303E-01 3.281959766656903810E+00
        pair_coeff 50  66   1.519299496369445057E-01 3.697231624767261415E+00
        pair_coeff 51  66   2.148406765408863717E-01 3.284811216535175493E+00
        pair_coeff 52  66   1.932740453273771308E-01 3.442005122285029639E+00
        pair_coeff 53   66   2.134245836275632802E-01 3.696248832273197671E+00
        pair_coeff 54      66   4.288601739941917956E-01 3.746056886190522572E+00
        pair_coeff 55  66   2.692761857664918157E-01 3.452462297648919431E+00
        pair_coeff 56      66   1.207132438148451475E-01 3.613093205741105152E+00
        pair_coeff 57     66   3.164052463383004721E-01 3.472392418844832296E+00
        pair_coeff 58   66   0.000000000000000000E+00 0.000000000000000000E+00
        pair_coeff 59  66   2.692761857664918157E-01 3.452462297648919431E+00
        pair_coeff 60  66   3.572912051620057983E-01 3.770469473586865128E+00
        pair_coeff 61  66   3.211733836732513225E-01 3.141163244384396869E+00
        pair_coeff 62   66   1.753481764061503856E-01 3.771416059562691103E+00
        pair_coeff 63   66   1.270605531769710694E-01 3.582365233831064533E+00
        pair_coeff 64   66   2.320557182122369999E-01 3.201331989309867510E+00
        pair_coeff 65   66   1.770662891134783812E-01 3.850734566032467665E+00
        pair_coeff 66   66   2.197789839249462973E-01 3.645291530929309243E+00
        pair_coeff 1      67   1.691446126797976623E-01 2.985294938784757601E+00
        pair_coeff 2     67   1.038204303792348571E-01 3.238295444039348325E+00
        pair_coeff 3     67   1.557729521826987651E-01 3.026552867598893748E+00
        pair_coeff 4     67   1.557729521826987651E-01 3.026552867598893748E+00
        pair_coeff 5     67   1.362684993430692826E-01 3.132654330460733050E+00
        pair_coeff 6      67   1.059571877347386532E-01 3.247362366332479766E+00
        pair_coeff 7     67   9.149991811937653596E-02 3.327737337717295407E+00
        pair_coeff 8     67   6.710391648259360353E-02 3.504245404295543764E+00
        pair_coeff 9     67   1.118277109009218756E-01 3.218307850690846461E+00
        pair_coeff 10     67   9.584488629822959793E-02 3.302105917046649353E+00
        pair_coeff 11     67   1.037675482704622926E-01 3.258683872122532410E+00
        pair_coeff 12      67   1.015608295071512290E-01 3.259466857310918897E+00
        pair_coeff 13    67   1.612780240082512320E-02 4.438140034683073054E+00
        pair_coeff 14    67   5.939874248642398880E-02 3.858779830233354247E+00
        pair_coeff 15    67   1.235513646855942310E-01 3.474970199400187365E+00
        pair_coeff 16    67   1.795625489418590515E-01 3.334483745402706312E+00
        pair_coeff 17    67   2.167586951297953424E-01 3.317550369341032201E+00
        pair_coeff 18   67   1.334940503517269006E-01 3.425251170357942243E+00
        pair_coeff 19    67   1.367115557872998488E-01 3.331489923654913365E+00
        pair_coeff 20     67   6.634513912854232698E-02 2.653504030845614370E+00
        pair_coeff 21      67   0.000000000000000000E+00 0.000000000000000000E+00
        pair_coeff 22    67   0.000000000000000000E+00 0.000000000000000000E+00
        pair_coeff 23      67   2.662042561611659419E-01 3.132536959416989397E+00
        pair_coeff 24   67   1.570569025311612521E-01 2.625806260038883178E+00
        pair_coeff 25   67   8.637937685043090008E-02 2.900929489772888559E+00
        pair_coeff 26     67   0.000000000000000000E+00 0.000000000000000000E+00
        pair_coeff 27   67   3.637073185416969667E-01 2.282864724856101368E+00
        pair_coeff 28   67   9.449559248627407981E-02 2.448066814448311757E+00
        pair_coeff 29   67   1.203237416459956299E-01 2.953075978826793957E+00
        pair_coeff 30     67   1.924808221665462171E-01 3.180537650420577123E+00
        pair_coeff 31      67   8.111532584620605169E-02 3.195685452558168382E+00
        pair_coeff 32     67   1.893661628589180523E-01 3.279701674707491854E+00
        pair_coeff 33     67   2.887895977576290796E-01 3.364147914463202049E+00
        pair_coeff 34   67   1.944822171822568335E-01 3.268582740519445640E+00
        pair_coeff 35   67   1.253333851332271154E-01 3.138237526839545488E+00
        pair_coeff 36    67   2.467829144763044116E-02 3.110567366814649404E+00
        pair_coeff 37    67   1.391989786659572903E-01 3.563244078823733396E+00
        pair_coeff 38   67   1.258094999745671128E-01 3.175970860479923275E+00
        pair_coeff 39  67   2.158594165642706009E-01 3.194574123915934649E+00
        pair_coeff 40   67   5.542984087504426033E-02 2.555999445121150515E+00
        pair_coeff 41  67   2.196198790769573750E-01 3.249793383002357761E+00
        pair_coeff 42  67   1.795625489418590515E-01 3.334483745402706312E+00
        pair_coeff 43  67   1.705399805009815140E-01 2.982149521307246864E+00
        pair_coeff 44   67   9.200230410212105470E-02 3.346023328270764097E+00
        pair_coeff 45  67   2.051701662942675142E-01 3.198087518325217538E+00
        pair_coeff 46   67   9.952850481329482413E-02 3.088563953776058746E+00
        pair_coeff 47   67   1.228460332960751161E-01 3.157723407013565797E+00
        pair_coeff 48  67   1.349222298646011453E-01 3.410138798895884893E+00
        pair_coeff 49   67   1.557729521826987651E-01 3.026552867598893748E+00
        pair_coeff 50  67   1.278246795834196148E-01 3.335370348482007863E+00
        pair_coeff 51  67   1.584171463231851262E-01 3.029182413485949965E+00
        pair_coeff 52  67   1.425145517695953212E-01 3.174143260066013106E+00
        pair_coeff 53   67   1.795625489418590515E-01 3.334483745402706312E+00
        pair_coeff 54      67   3.608170374432017602E-01 3.379416907025193595E+00
        pair_coeff 55  67   2.265527122683737016E-01 3.114557470430365349E+00
        pair_coeff 56      67   1.015608295071512290E-01 3.259466857310918897E+00
        pair_coeff 57     67   2.662042561611659419E-01 3.132536959416989397E+00
        pair_coeff 58   67   0.000000000000000000E+00 0.000000000000000000E+00
        pair_coeff 59  67   2.265527122683737016E-01 3.114557470430365349E+00
        pair_coeff 60  67   3.006032314691269858E-01 3.401440147220920363E+00
        pair_coeff 61  67   1.194644161845258429E-01 3.246658638196322055E+00
        pair_coeff 62   67   2.135172342494472131E-01 3.198981952667974138E+00
        pair_coeff 63   67   1.069010720818995841E-01 3.231746341860607608E+00
        pair_coeff 64   67   1.952376598350860082E-01 2.888006183129844473E+00
        pair_coeff 65   67   2.140384144044120418E-01 3.270244578605614905E+00
        pair_coeff 66   67   3.212613590771104533E-01 2.999274180977609561E+00
        pair_coeff 67   67   1.194971397251269885E-01 3.100004256511835088E+00
        pair_coeff 1      68     4.228207516674085675E-01 3.056859151858752899E+00
        pair_coeff 2     68     4.910239828909634396E-01 2.981611307668237565E+00
        pair_coeff 3     68     3.843825015158260361E-01 3.105805176400184386E+00
        pair_coeff 4     68     3.843825015158260361E-01 3.105805176400184386E+00
        pair_coeff 5     68     3.014499067379129427E-01 3.273761725414885415E+00
        pair_coeff 6      68     2.990356735930130294E-01 3.258641081240354787E+00
        pair_coeff 7     68     2.990356735930130294E-01 3.258641081240354787E+00
        pair_coeff 8     68     2.990356735930130294E-01 3.258641081240354787E+00
        pair_coeff 9     68     2.990356735930130294E-01 3.258641081240354787E+00
        pair_coeff 10     68     2.990356735930130294E-01 3.258641081240354787E+00
        pair_coeff 11     68     2.990356735930130294E-01 3.258641081240354787E+00
        pair_coeff 12      68     1.969066010196180716E-01 3.482000009875157343E+00
        pair_coeff 13    68     3.126865710011655919E-02 4.741144586247799886E+00
        pair_coeff 14    68     1.151625537581669190E-01 4.122229798668242573E+00
        pair_coeff 15    68     2.395419512585078570E-01 3.712216383328954539E+00
        pair_coeff 16    68     3.481366916176150683E-01 3.562138516112925313E+00
        pair_coeff 17    68     4.202527500668978289E-01 3.544049049891872194E+00
        pair_coeff 18   68     2.588188757285546648E-01 3.659102893548325852E+00
        pair_coeff 19    68     2.650569899912606497E-01 3.558940297566233646E+00
        pair_coeff 20     68     1.286302593565866181E-01 2.834666362961839603E+00
        pair_coeff 21      68     0.000000000000000000E+00 0.000000000000000000E+00
        pair_coeff 22    68     0.000000000000000000E+00 0.000000000000000000E+00
        pair_coeff 23      68     5.161180300714267588E-01 3.346404243736659900E+00
        pair_coeff 24   68     1.091960338095528060E+00 2.267299599251422659E+00
        pair_coeff 25   68     1.091960338095528060E+00 2.267299599251422659E+00
        pair_coeff 26     68     0.000000000000000000E+00 0.000000000000000000E+00
        pair_coeff 27   68     8.045846089363817288E-01 2.385694166082639622E+00
        pair_coeff 28   68     2.090408838393064406E-01 2.558337624572998514E+00
        pair_coeff 29   68     2.661772960911888974E-01 3.086094440015471729E+00
        pair_coeff 30     68     3.731826988633197284E-01 3.397682079611450412E+00
        pair_coeff 31      68     2.524358768718786838E-01 3.154960092081345202E+00
        pair_coeff 32     68     4.189112847674477114E-01 3.427432675553883090E+00
        pair_coeff 33     68     6.388534234294728220E-01 3.515682714787159213E+00
        pair_coeff 34   68     3.770630126787305469E-01 3.491738260580458331E+00
        pair_coeff 35   68     2.772595092901040115E-01 3.279596411493302277E+00
        pair_coeff 36    68     5.459272459301211383E-02 3.250679875779549644E+00
        pair_coeff 37    68     3.079326428276232264E-01 3.723746973975487151E+00
        pair_coeff 38   68     2.439200342906357177E-01 3.392803501821101797E+00
        pair_coeff 39  68     4.185092246687046047E-01 3.412676863417832607E+00
        pair_coeff 40   68     1.074676291512047521E-01 2.730504859465051837E+00
        pair_coeff 41  68     4.258000265972445297E-01 3.471666099725899457E+00
        pair_coeff 42  68     3.481366916176150683E-01 3.562138516112925313E+00
        pair_coeff 43  68     4.896090631997686571E-01 2.983985758054453097E+00
        pair_coeff 44   68     1.783744882218230021E-01 3.574465939406219039E+00
        pair_coeff 45  68     3.977848573281826949E-01 3.416430127342078293E+00
        pair_coeff 46   68     2.201745718076525138E-01 3.227685340208292786E+00
        pair_coeff 47   68     2.381744515327116618E-01 3.373310242361340361E+00
        pair_coeff 48  68     2.615878367038697028E-01 3.642958757134699077E+00
        pair_coeff 49   68     3.445971896229899079E-01 3.162881024422723453E+00
        pair_coeff 50  68     2.478270737383122535E-01 3.563085650127790327E+00
        pair_coeff 51  68     3.504466124968692586E-01 3.165629015669813917E+00
        pair_coeff 52  68     3.152672741451525984E-01 3.317119483865758500E+00
        pair_coeff 53   68     3.481366916176150683E-01 3.562138516112925313E+00
        pair_coeff 54      68     6.995537233959522316E-01 3.610139393576149658E+00
        pair_coeff 55  68     4.392414353153730744E-01 3.327197243460355836E+00
        pair_coeff 56      68     1.969066010196180716E-01 3.482000009875157343E+00
        pair_coeff 57     68     5.161180300714267588E-01 3.346404243736659900E+00
        pair_coeff 58   68     0.000000000000000000E+00 0.000000000000000000E+00
        pair_coeff 59  68     4.392414353153730744E-01 3.327197243460355836E+00
        pair_coeff 60  68     5.828109208179663714E-01 3.633666223556641928E+00
        pair_coeff 61  68     2.642763169106269738E-01 3.392901247311097990E+00
        pair_coeff 62   68     2.860267218407508971E-01 3.634578464727707292E+00
        pair_coeff 63   68     2.072602877620044470E-01 3.452386935315056249E+00
        pair_coeff 64   68     3.785276683511555329E-01 3.085178649883229873E+00
        pair_coeff 65   68     2.888292953006066366E-01 3.711019072424234899E+00
        pair_coeff 66   68     3.585019450441149225E-01 3.513030089156019553E+00
        pair_coeff 67   68     2.643487071424846513E-01 3.239640960354239319E+00
        pair_coeff 68     68     5.847858712655799041E-01 3.385567464934501558E+00
        pair_coeff 1      69      4.228207516674085675E-01 3.056859151858752899E+00
        pair_coeff 2     69      4.910239828909634396E-01 2.981611307668237565E+00
        pair_coeff 3     69      3.843825015158260361E-01 3.105805176400184386E+00
        pair_coeff 4     69      3.843825015158260361E-01 3.105805176400184386E+00
        pair_coeff 5     69      3.014499067379129427E-01 3.273761725414885415E+00
        pair_coeff 6      69      2.990356735930130294E-01 3.258641081240354787E+00
        pair_coeff 7     69      2.990356735930130294E-01 3.258641081240354787E+00
        pair_coeff 8     69      2.990356735930130294E-01 3.258641081240354787E+00
        pair_coeff 9     69      2.990356735930130294E-01 3.258641081240354787E+00
        pair_coeff 10     69      2.990356735930130294E-01 3.258641081240354787E+00
        pair_coeff 11     69      2.990356735930130294E-01 3.258641081240354787E+00
        pair_coeff 12      69      1.969066010196180716E-01 3.482000009875157343E+00
        pair_coeff 13    69      3.126865710011655919E-02 4.741144586247799886E+00
        pair_coeff 14    69      1.151625537581669190E-01 4.122229798668242573E+00
        pair_coeff 15    69      2.395419512585078570E-01 3.712216383328954539E+00
        pair_coeff 16    69      3.481366916176150683E-01 3.562138516112925313E+00
        pair_coeff 17    69      4.202527500668978289E-01 3.544049049891872194E+00
        pair_coeff 18   69      2.588188757285546648E-01 3.659102893548325852E+00
        pair_coeff 19    69      2.650569899912606497E-01 3.558940297566233646E+00
        pair_coeff 20     69      1.286302593565866181E-01 2.834666362961839603E+00
        pair_coeff 21      69      0.000000000000000000E+00 0.000000000000000000E+00
        pair_coeff 22    69      0.000000000000000000E+00 0.000000000000000000E+00
        pair_coeff 23      69      5.161180300714267588E-01 3.346404243736659900E+00
        pair_coeff 24   69      1.091960338095528060E+00 2.267299599251422659E+00
        pair_coeff 25   69      1.091960338095528060E+00 2.267299599251422659E+00
        pair_coeff 26     69      0.000000000000000000E+00 0.000000000000000000E+00
        pair_coeff 27   69      8.045846089363817288E-01 2.385694166082639622E+00
        pair_coeff 28   69      2.090408838393064406E-01 2.558337624572998514E+00
        pair_coeff 29   69      2.661772960911888974E-01 3.086094440015471729E+00
        pair_coeff 30     69      3.731826988633197284E-01 3.397682079611450412E+00
        pair_coeff 31      69      2.524358768718786838E-01 3.154960092081345202E+00
        pair_coeff 32     69      4.189112847674477114E-01 3.427432675553883090E+00
        pair_coeff 33     69      6.388534234294728220E-01 3.515682714787159213E+00
        pair_coeff 34   69      3.770630126787305469E-01 3.491738260580458331E+00
        pair_coeff 35   69      2.772595092901040115E-01 3.279596411493302277E+00
        pair_coeff 36    69      5.459272459301211383E-02 3.250679875779549644E+00
        pair_coeff 37    69      3.079326428276232264E-01 3.723746973975487151E+00
        pair_coeff 38   69      2.439200342906357177E-01 3.392803501821101797E+00
        pair_coeff 39  69      4.185092246687046047E-01 3.412676863417832607E+00
        pair_coeff 40   69      1.074676291512047521E-01 2.730504859465051837E+00
        pair_coeff 41  69      4.258000265972445297E-01 3.471666099725899457E+00
        pair_coeff 42  69      3.481366916176150683E-01 3.562138516112925313E+00
        pair_coeff 43  69      4.896090631997686571E-01 2.983985758054453097E+00
        pair_coeff 44   69      1.783744882218230021E-01 3.574465939406219039E+00
        pair_coeff 45  69      3.977848573281826949E-01 3.416430127342078293E+00
        pair_coeff 46   69      2.201745718076525138E-01 3.227685340208292786E+00
        pair_coeff 47   69      2.381744515327116618E-01 3.373310242361340361E+00
        pair_coeff 48  69      2.615878367038697028E-01 3.642958757134699077E+00
        pair_coeff 49   69      3.445971896229899079E-01 3.162881024422723453E+00
        pair_coeff 50  69      2.478270737383122535E-01 3.563085650127790327E+00
        pair_coeff 51  69      3.504466124968692586E-01 3.165629015669813917E+00
        pair_coeff 52  69      3.152672741451525984E-01 3.317119483865758500E+00
        pair_coeff 53   69      3.481366916176150683E-01 3.562138516112925313E+00
        pair_coeff 54      69      6.995537233959522316E-01 3.610139393576149658E+00
        pair_coeff 55  69      4.392414353153730744E-01 3.327197243460355836E+00
        pair_coeff 56      69      1.969066010196180716E-01 3.482000009875157343E+00
        pair_coeff 57     69      5.161180300714267588E-01 3.346404243736659900E+00
        pair_coeff 58   69      0.000000000000000000E+00 0.000000000000000000E+00
        pair_coeff 59  69      4.392414353153730744E-01 3.327197243460355836E+00
        pair_coeff 60  69      5.828109208179663714E-01 3.633666223556641928E+00
        pair_coeff 61  69      2.642763169106269738E-01 3.392901247311097990E+00
        pair_coeff 62   69      2.860267218407508971E-01 3.634578464727707292E+00
        pair_coeff 63   69      2.072602877620044470E-01 3.452386935315056249E+00
        pair_coeff 64   69      3.785276683511555329E-01 3.085178649883229873E+00
        pair_coeff 65   69      2.888292953006066366E-01 3.711019072424234899E+00
        pair_coeff 66   69      3.585019450441149225E-01 3.513030089156019553E+00
        pair_coeff 67   69      2.643487071424846513E-01 3.239640960354239319E+00
        pair_coeff 68     69      5.847858712655799041E-01 3.385567464934501558E+00
        pair_coeff 69      69      5.847858712655799041E-01 3.385567464934501558E+00
	#water spce
	pair_coeff 70 70 0.1553 3.166 7.9
        pair_coeff 71 71 0 0
	#           bond_id     k_harmonic               r0
        bond_coeff 1    3.752390057361376989E+02 1.0000000000E+00
        bond_coeff 2    4.469407265774378857E+02 1.0000000000E+00
        bond_coeff 3    3.492741395793498782E+02 1.0900000000E+00
        bond_coeff 4    1.109292543021032543E+03 1.1200000000E+00
        bond_coeff 5    6.002423518164436018E+02 1.2300000000E+00
        bond_coeff 6    5.004182600382409305E+02 1.2500000000E+00
        bond_coeff 7    4.997323135755258363E+02 1.3200000000E+00
        bond_coeff 8    3.750034177820267587E+02 1.3300000000E+00
        bond_coeff 9    4.481438814531548473E+02 1.3300000000E+00
        bond_coeff 10   4.988771510516252761E+02 1.3300000000E+00
        bond_coeff 11   4.506166347992351575E+02 1.3400000000E+00
        bond_coeff 12   5.021156787762906788E+02 1.3400000000E+00
        bond_coeff 13   4.509063097514340939E+02 1.3600000000E+00
        bond_coeff 14   5.006787762906309922E+02 1.3800000000E+00
        bond_coeff 15   3.999040630975143245E+02 1.3900000000E+00
        bond_coeff 16   4.987256214149139169E+02 1.3900000000E+00
        bond_coeff 17   4.000573613766730432E+02 1.4000000000E+00
        bond_coeff 18   3.997916347992352257E+02 1.4300000000E+00
        bond_coeff 19   4.501321462715105213E+02 1.4300000000E+00
        bond_coeff 20   3.002216180688336635E+02 1.4350000000E+00
        bond_coeff 21   4.498431883365200861E+02 1.4700000000E+00
        bond_coeff 22   2.999759082217973400E+02 1.4800000000E+00
        bond_coeff 23   3.999678776290630822E+02 1.4800000000E+00
        bond_coeff 24   4.502256214149139737E+02 1.4800000000E+00
        bond_coeff 25   4.501075525812619276E+02 1.5000000000E+00
        bond_coeff 26   2.998439770554493293E+02 1.5200000000E+00
        bond_coeff 27   4.000342973231357746E+02 1.5300000000E+00
        bond_coeff 28   2.998509560229445583E+02 1.6100000000E+00
        bond_coeff 29   2.997267686424473823E+02 1.6300000000E+00
        bond_coeff 30   2.059762906309751429E+02 1.7800000000E+00
        bond_coeff 31   4.498158699808795404E+02 1.7800000000E+00
        bond_coeff 32   4.498283460803058915E+02 1.8300000000E+00
        bond_coeff 33   3.000447179732313998E+02 1.8700000000E+00
        bond_coeff 34   5.996787762906310348E+01 1.9800000000E+00
        bond_coeff 35   6.003824091778202643E+01 2.0000000000E+00
        bond_coeff 36   5.003070745697896768E+02 2.0400000000E+00
        bond_coeff 37   6.303570745697896882E+01 2.2100000000E+00
        bond_coeff 38   5.544933078393881942E+02 1.0000000000E+00
        bond_coeff 39   3.499282982791586960E+02 1.1000000000E+00
        bond_coeff 40   5.997939651051625560E+02 1.7580000000E+00
        bond_coeff 41   4.498287762906309695E+02 1.5300000000E+00
        bond_coeff 42   4.443412045889101023E+02 1.9379900000E+00
        bond_coeff 43   5.996787762906310491E+02 1.7600000000E+00
        bond_coeff 44   5.010264698852772653E+02 1.2650000000E+00
        bond_coeff 45   4.486555927342256496E+02 1.3500000000E+00
        bond_coeff 46   5.551285014340344333E+02 1.6329900000E+00
        bond_coeff 47   3.502490798279158639E+02 2.3383900000E+00
        bond_coeff 48   6.001610301147227347E+02 2.9028300000E+00
        bond_coeff 49   4.458838312619503199E+02 2.7938800000E+00
        bond_coeff 50   4.438154039196940630E+02 2.9118900000E+00
        bond_coeff 51   4.093283460803059484E+02 2.0770000000E+00
        bond_coeff 52   6.001731835564053199E+02 2.8740700000E+00
        bond_coeff 53   8.843212237093690931E+01 1.1000000000E+00
        bond_coeff 54   5.616634799235181674E+01 1.8400000000E+00
        bond_coeff 55   5.138623326959847191E+02 1.0100000000E+00
        bond_coeff 56   3.107074569789675138E+02 1.4100000000E+00
        bond_coeff 57   4.421606118546845323E+02 1.0200000000E+00
        bond_coeff 58   2.390057361376672986E+02 1.4600000000E+00
        bond_coeff 59   5.138623326959847191E+02 1.2900000000E+00
        bond_coeff 60   4.421606118546845323E+02 9.7200000000E-01
        bond_coeff 61   8.126195028680688210E+02 1.2200000000E+00
        bond_coeff 62   4.660611854684512423E+02 1.2200000000E+00
        bond_coeff 63   2.390057361376672986E+02 1.5400000000E+00
        bond_coeff 64   1.792543021032504669E+02 1.5600000000E+00
        bond_coeff 65   2.270554493307839437E+02 1.5400000000E+00
        bond_coeff 66   1.063575525812619560E+02 1.7600000000E+00
        bond_coeff 67   1.314531548757170185E+02 1.6900000000E+00
        bond_coeff 68   2.031548757170172053E+02 1.7500000000E+00
        bond_coeff 69   2.031548757170172053E+02 1.5100000000E+00
        bond_coeff 70   1.434034416826003735E+02 1.5700000000E+00
        bond_coeff 71   1.792543021032504669E+02 9.7100000000E-01
        bond_coeff 72   1.912045889101338503E+02 1.5000000000E+00
        bond_coeff 73   2.629063097514340370E+02 1.4500000000E+00
        bond_coeff 74   5.497131931166347840E+02 1.5200000000E+00
        bond_coeff 75   8.365200764818355594E+01 1.0300000000E+00
        bond_coeff 76   1.912045889101338503E+02 1.7400000000E+00
        bond_coeff 77   1.912045889101338503E+02 1.7200000000E+00
        bond_coeff 78   2.270554493307839437E+02 1.6400000000E+00
        bond_coeff 79   2.031548757170172053E+02 1.6700000000E+00
        bond_coeff 80   1.912045889101338503E+02 1.6600000000E+00
        bond_coeff 81   2.151051625239005887E+02 1.6500000000E+00
        bond_coeff 82   5.138623326959847191E+02 1.3100000000E+00
        bond_coeff 83   1.553537284894837569E+02 1.0100000000E+00
        bond_coeff 84   3.585086042065009337E+01 1.8900000000E+00
        bond_coeff 85   1.015774378585086026E+02 1.9300000000E+00
        bond_coeff 86   1.553537284894837569E+02 1.3600000000E+00
        bond_coeff 87   1.673040152963671119E+02 1.7900000000E+00
        bond_coeff 88   1.147227533460803102E+02 1.3500000000E+00
        bond_coeff 89   1.553537284894837569E+02 1.3900000000E+00
        bond_coeff 90   2.031548757170172053E+02 1.3800000000E+00
        bond_coeff 91   2.270554493307839437E+02 9.8300000000E-01
        bond_coeff 92   1.553537284894837569E+02 1.3000000000E+00
        bond_coeff 93   4.182600382409177655E+02 1.0800000000E+00
        bond_coeff 94   1.553537284894837569E+02 1.9000000000E+00
        bond_coeff 95   1.314531548757170185E+03 1.1600000000E+00
        bond_coeff 96   1.434034416826003735E+02 1.8000000000E+00
        bond_coeff 97   1.553537284894837569E+02 1.4200000000E+00
        bond_coeff 98   4.780114722753345973E+02 9.8400000000E-01
        bond_coeff 99   1.195028680688336493E+02 1.0800000000E+00
        bond_coeff 100  1.195028680688336493E+02 1.9100000000E+00
        bond_coeff 101  4.182600382409177655E+02 1.0300000000E+00
        bond_coeff 102  5.258126195028680741E+02 1.2800000000E+00
        bond_coeff 103  1.314531548757170185E+02 1.2200000000E+00
        bond_coeff 104  1.434034416826003735E+02 1.1100000000E+00
        bond_coeff 105  1.195028680688336635E+03 1.2100000000E+00
        bond_coeff 106  4.660611854684512423E+02 1.0700000000E+00
        bond_coeff 107  9.560229445506691945E+02 1.2100000000E+00
        bond_coeff 108  6.931166347992351575E+02 1.2100000000E+00
        bond_coeff 109  8.723709369024857097E+01 1.8500000000E+00
        bond_coeff 110  3.943594646271510555E+02 1.1100000000E+00
        bond_coeff 111  1.099426386233269568E+02 2.0900000000E+00
        bond_coeff 112  1.314531548757170185E+02 1.8200000000E+00
        bond_coeff 113  9.918738049713192595E+01 1.9600000000E+00
        bond_coeff 114  5.616634799235181674E+01 1.8600000000E+00
        bond_coeff 115  1.673040152963671119E+02 1.2100000000E+00
        bond_coeff 116  1.673040152963671119E+02 1.2800000000E+00
        bond_coeff 117  1.434034416826003735E+02 1.7100000000E+00
        bond_coeff 118  1.314531548757170185E+02 1.6000000000E+00
        bond_coeff 119  4.541108986615678873E+02 1.2100000000E+00
        bond_coeff 120  4.182600382409177797E+01 1.6100000000E+00
        bond_coeff 121  1.314531548757170185E+02 1.9400000000E+00
        bond_coeff 122  1.553537284894837569E+02 1.5900000000E+00
        bond_coeff 123  1.434034416826003735E+02 2.1000000000E+00
        bond_coeff 124  1.195028680688336493E+02 2.1200000000E+00
        bond_coeff 125  5.736137667304015508E+01 2.1300000000E+00
        bond_coeff 126  2.031548757170172053E+02 1.2600000000E+00
        bond_coeff 127  1.195028680688336635E+03 1.1400000000E+00
        bond_coeff 128  1.912045889101338503E+02 1.2300000000E+00
        bond_coeff 129  7.887189292543021111E+02 1.3000000000E+00
        bond_coeff 130  2.390057361376672986E+02 1.3100000000E+00
        bond_coeff 131  5.975143403441682466E+01 2.0400000000E+00
        bond_coeff 132  8.245697896749521760E+01 1.3400000000E+00
        bond_coeff 133  6.214149139579350276E+02 9.3800000000E-01
        bond_coeff 134  3.107074569789675138E+02 1.1600000000E+00
        bond_coeff 135  3.465583173996176214E+01 2.0700000000E+00
        bond_coeff 136  6.094646271510516300E+01 1.1600000000E+00
        bond_coeff 137  9.321223709369024846E+01 2.1600000000E+00
        bond_coeff 138  4.302103250478011631E+01 2.2300000000E+00
        bond_coeff 139  2.390057361376673128E+01 2.0500000000E+00
        bond_coeff 140  8.962715105162524196E+02 1.1900000000E+00
        bond_coeff 141  7.289674952198853362E+02 1.4700000000E+00
        bond_coeff 142  3.943594646271510555E+02 1.5700000000E+00
        bond_coeff 143  1.195028680688336635E+03 1.1800000000E+00
        bond_coeff 144  5.497131931166347840E+01 1.8700000000E+00
        bond_coeff 145  1.063575525812619617E+03 1.1700000000E+00
        bond_coeff 146  2.151051625239005887E+02 1.1300000000E+00
        bond_coeff 147  5.975143403441682466E+01 2.0200000000E+00
        bond_coeff 148  1.792543021032504669E+02 1.0700000000E+00
        bond_coeff 149  2.509560229445506820E+02 1.1400000000E+00
        bond_coeff 150  1.553537284894837569E+02 1.0600000000E+00
        bond_coeff 151  5.377629063097514290E+02 1.4600000000E+00
        bond_coeff 152  8.126195028680688210E+02 1.1700000000E+00
        bond_coeff 153  9.201720841300191012E+01 2.1500000000E+00
        bond_coeff 154  2.390057361376672986E+02 1.0400000000E+00
        bond_coeff 155  6.094646271510516300E+01 1.4000000000E+00
        bond_coeff 156  1.314531548757170185E+03 1.1100000000E+00
        bond_coeff 157  4.660611854684512423E+02 1.5600000000E+00
        bond_coeff 158  7.528680688336520461E+02 1.4900000000E+00
        bond_coeff 159  5.019120458891013641E+02 1.5400000000E+00
        bond_coeff 160  3.585086042065009337E+01 2.1700000000E+00
        bond_coeff 161  3.585086042065009337E+01 2.2700000000E+00
        bond_coeff 162  6.692160611854684475E+02 1.4500000000E+00
        bond_coeff 163  7.648183556405354011E+02 1.2500000000E+00
        bond_coeff 164  8.484703632887188860E+02 1.2700000000E+00
        bond_coeff 165  5.616634799235181390E+02 1.1600000000E+00
        bond_coeff 166  1.434034416826003735E+03 1.1400000000E+00
        bond_coeff 167  5.019120458891013641E+02 1.1700000000E+00
        bond_coeff 168  5.377629063097514290E+02 1.1900000000E+00
        bond_coeff 169  9.201720841300191296E+02 1.1400000000E+00
        bond_coeff 170  2.270554493307839437E+02 1.2400000000E+00
        bond_coeff 171  1.434034416826003735E+03 1.1300000000E+00
        bond_coeff 172  8.962715105162523344E+01 2.9100000000E+00
        bond_coeff 173  5.736137667304015508E+01 2.2400000000E+00
        bond_coeff 174  4.182600382409177655E+02 7.4300000000E-01
        bond_coeff 175  2.390057361376672986E+02 1.2000000000E+00
        bond_coeff 176  1.111376673040152951E+02 2.3300000000E+00
        bond_coeff 177  9.679732313575526348E+01 2.4200000000E+00
        bond_coeff 178  8.365200764818355594E+01 1.3200000000E+00
        bond_coeff 179  1.159177820267686457E+03 1.2000000000E+00
        bond_coeff 180  1.314531548757170185E+03 1.2000000000E+00
        bond_coeff 181  4.302103250478011773E+02 1.5800000000E+00
        bond_coeff 182  5.377629063097514717E+01 1.4700000000E+00
        bond_coeff 183  1.553537284894837445E+00 2.7700000000E+00
        bond_coeff 184  5.138623326959846693E+00 2.2500000000E+00
        bond_coeff 185  1.003824091778202643E+02 2.1800000000E+00
        bond_coeff 186  5.019120458891013214E+01 1.5200000000E+00
        bond_coeff 187  9.321223709369024846E+01 2.1900000000E+00
        bond_coeff 188  2.748565965583173920E+01 1.4800000000E+00
        bond_coeff 189  1.912045889101338389E+03 1.0700000000E+00
        bond_coeff 190  8.604206500956022907E+00 2.8000000000E+00
        bond_coeff 191  8.723709369024857097E+01 2.5200000000E+00
        bond_coeff 192  6.692160611854685026E-01 2.7900000000E+00
        bond_coeff 193  8.126195028680688210E+02 1.1600000000E+00
        bond_coeff 194  1.792543021032504846E+00 2.6800000000E+00
        bond_coeff 195  4.063097514340344105E+02 1.5900000000E+00
        bond_coeff 196  1.195028680688336493E+02 1.1800000000E+00
        bond_coeff 197  3.465583173996176214E+01 2.5400000000E+00
        bond_coeff 198  1.792543021032504839E+03 1.1000000000E+00
        bond_coeff 199  8.245697896749521760E+02 1.2900000000E+00
        bond_coeff 200  3.346080305927342380E+01 2.4400000000E+00
        bond_coeff 201  1.075525812619502943E+02 2.4100000000E+00
        bond_coeff 202  1.123326959847036335E+02 2.3600000000E+00
        bond_coeff 203  2.031548757170171982E+01 1.4300000000E+00
        bond_coeff 204  2.270554493307839206E+00 2.5700000000E+00
        bond_coeff 205  1.912045889101338503E+01 2.4700000000E+00
        bond_coeff 206  7.648183556405353523E-01 2.7100000000E+00
        bond_coeff 207  1.553537284894837512E+03 1.1200000000E+00
        bond_coeff 208  3.704588910133843171E+00 2.7500000000E+00
        bond_coeff 209  5.019120458891013641E+02 1.1400000000E+00
        bond_coeff 210  7.170172084130018719E-01 2.8600000000E+00
        bond_coeff 211  1.051625239005736212E+01 2.6400000000E+00
        bond_coeff 212  1.912045889101338389E+03 9.8500000000E-01
        bond_coeff 213  1.912045889101338547E+00 2.6100000000E+00
        bond_coeff 214  7.409177820267686343E+00 2.6200000000E+00
        bond_coeff 215  5.975143403441682466E+01 2.4600000000E+00
        bond_coeff 216  3.585086042065009693E+00 2.6600000000E+00
        bond_coeff 217  1.314531548757170265E+00 2.7200000000E+00
        bond_coeff 218  5.855640535372849342E+01 1.6300000000E+00
        bond_coeff 219  5.736137667304014940E+02 1.1200000000E+00
        bond_coeff 220  3.704588910133843171E+01 2.3200000000E+00
        bond_coeff 221  1.673040152963671190E+01 1.4400000000E+00
        bond_coeff 222  1.553537284894837512E+03 1.1600000000E+00
        bond_coeff 223  7.170172084130019385E+00 2.6900000000E+00
        bond_coeff 224  1.003824091778202643E+01 2.4900000000E+00
        bond_coeff 225  3.226577437858508812E+00 2.9200000000E+00
        bond_coeff 226  8.245697896749522027E-01 2.2900000000E+00
        bond_coeff 227  9.799235181644359471E+00 2.4000000000E+00
        bond_coeff 228  1.039674952198852864E+00 2.3700000000E+00
        bond_coeff 229  1.553537284894837445E+00 2.9400000000E+00
        bond_coeff 230  5.855640535372849342E+00 2.9500000000E+00
        bond_coeff 231  1.673040152963671146E+00 2.9600000000E+00
        bond_coeff 232  1.314531548757170119E-02 2.5600000000E+00
        bond_coeff 233  5.258126195028681060E+00 2.5900000000E+00
        bond_coeff 234  1.553537284894837533E+01 2.3800000000E+00
        bond_coeff 235  8.365200764818355310E+02 1.1200000000E+00
        bond_coeff 236  1.912045889101338547E+00 2.5000000000E+00
        bond_coeff 237  2.390057361376673128E+00 2.3000000000E+00
        bond_coeff 238  5.855640535372848490E+02 1.0400000000E+00
        bond_coeff 239  3.346080305927342291E+00 2.9900000000E+00
        bond_coeff 240  9.679732313575526437E-01 2.3400000000E+00
        bond_coeff 241  1.075525812619502863E+00 2.9800000000E+00
        bond_coeff 242  2.270554493307839206E+00 2.7400000000E+00
        bond_coeff 243  1.063575525812619617E+03 1.1600000000E+00
        bond_coeff 244  8.126195028680688210E+02 1.5000000000E+00
        bond_coeff 245  1.314531548757170265E+00 2.8400000000E+00
        bond_coeff 246  3.226577437858508812E-01 2.8200000000E+00
        bond_coeff 247  9.082217973231357746E+02 1.2300000000E+00
        bond_coeff 248  4.660611854684512423E+02 1.0500000000E+00
        bond_coeff 249  3.346080305927342291E+00 2.8800000000E+00
        bond_coeff 250  1.434034416826003735E+03 1.1800000000E+00
        bond_coeff 251  1.673040152963671062E+03 1.1500000000E+00
        bond_coeff 252  6.333652007648183258E+00 2.9000000000E+00

       # Dummy bond for extra excluded interactions
        bond_coeff 253  0.000000000000000000E+00 0.0000000000E+00
#water spce
	bond_coeff 254 100 1.0
       #            angle_id     k_harmonic               theta0
        angle_coeff 1    4.531159764110539356E+01 9.0000000000E+01
        angle_coeff 2    5.009172539172424621E+01 9.0000000000E+01
        angle_coeff 3    4.777119165305969517E+01 9.6000000000E+01
        angle_coeff 4    5.495507667712937661E+01 1.0000000000E+02
        angle_coeff 5    4.755587910082016379E+01 1.0300000000E+02
        angle_coeff 6    5.503449877865421058E+01 1.0400000000E+02
        angle_coeff 7    5.017089249514589966E+01 1.0800000000E+02
        angle_coeff 8    3.017313270271808179E+01 1.0950000000E+02
        angle_coeff 9    3.388969514161131968E+01 1.0950000000E+02
        angle_coeff 10   4.026093651823891406E+01 1.0950000000E+02
        angle_coeff 11   4.503936558918574207E+01 1.0950000000E+02
        angle_coeff 12   4.769404884227261476E+01 1.0950000000E+02
        angle_coeff 13   5.512715332021083015E+01 1.0950000000E+02
        angle_coeff 14   4.763495597414375737E+01 1.0960000000E+02
        angle_coeff 15   5.511390518798809524E+01 1.1100000000E+02
        angle_coeff 16   5.509974690868934033E+01 1.1300000000E+02
        angle_coeff 17   4.824003116558784221E+00 1.1500000000E+02
        angle_coeff 18   4.506986336232746027E+01 1.1500000000E+02
        angle_coeff 19   5.979372060785910747E+01 1.1500000000E+02
        angle_coeff 20   4.480849815265150937E+01 1.1600000000E+02
        angle_coeff 21   5.977192415460783081E+01 1.1600000000E+02
        angle_coeff 22   6.016393470016820544E+01 1.1700000000E+02
        angle_coeff 23   3.487998772914675527E+01 1.2000000000E+02
        angle_coeff 24   3.980949179939617721E+01 1.2000000000E+02
        angle_coeff 25   4.518712718236594128E+01 1.2000000000E+02
        angle_coeff 26   4.742781120730183630E+01 1.2000000000E+02
        angle_coeff 27   5.011662889878671479E+01 1.2000000000E+02
        angle_coeff 28   5.997562448553279069E+01 1.2000000000E+02
        angle_coeff 29   6.983461614923112393E+01 1.2000000000E+02
        angle_coeff 30   6.007257868741400131E+01 1.2100000000E+02
        angle_coeff 31   6.009101308875088421E+01 1.2200000000E+02
        angle_coeff 32   3.481463446143215634E+01 1.2300000000E+02
        angle_coeff 33   5.989285210123679093E+01 1.2400000000E+02
        angle_coeff 34   3.000747691187498489E+01 1.2500000000E+02
        angle_coeff 35   6.007786695576940872E+01 1.2500000000E+02
        angle_coeff 36   4.491393398374964363E+01 1.2600000000E+02
        angle_coeff 37   4.999795670460907360E+01 1.2600000000E+02
        angle_coeff 38   6.016599430023244111E+01 1.2600000000E+02
        angle_coeff 39   5.011888465123802661E+01 1.3200000000E+02
        angle_coeff 40   4.751869253127933490E+01 1.5500000000E+02
        angle_coeff 41   2.849707999314575346E+01 1.8000000000E+02
        angle_coeff 42   4.599505140337510767E+01 1.0950000000E+02
        angle_coeff 43   5.247673834306662144E+01 1.0757000000E+02
        angle_coeff 44   6.547197129315762254E+01 1.1130000000E+02
        angle_coeff 45   5.501891643302533197E+01 9.7400000000E+01
        angle_coeff 46   5.502468723625295155E+01 1.0675000000E+02
        angle_coeff 47   4.750189404085062250E+01 1.0853000000E+02
        angle_coeff 48   6.553349252783840484E+01 1.0950000000E+02
        angle_coeff 49   5.495659489660530284E+01 1.0760000000E+02
        angle_coeff 50   4.748167072974365510E+01 1.0950000000E+02
        angle_coeff 51   5.499310277888685761E+01 1.1030000000E+02
        angle_coeff 52   5.502340047659377120E+01 1.1140000000E+02
        angle_coeff 53   6.004396397718814882E+01 1.1720000000E+02
        angle_coeff 54   6.000230905626986555E+01 1.2140000000E+02
        angle_coeff 55   4.824003116558784399E+01 1.8000000000E+02
        angle_coeff 56   1.804601961048520877E+02 1.0900000000E+02
        angle_coeff 57   1.922293393290815686E+02 1.0600000000E+02
        angle_coeff 58   1.451527664321636166E+02 1.2600000000E+02
        angle_coeff 59   1.451527664321636166E+02 9.6200000000E+01
        angle_coeff 60   1.569219096563931259E+02 1.1400000000E+02
        angle_coeff 61   2.039984825533110495E+02 1.1900000000E+02
        angle_coeff 62   2.393059122259994922E+02 1.3000000000E+02
        angle_coeff 63   2.981516283471469251E+02 1.0700000000E+02
        angle_coeff 64   1.569219096563931259E+02 1.3400000000E+02
        angle_coeff 65   2.393059122259994922E+02 1.0100000000E+02
        angle_coeff 66   2.863824851229174442E+02 1.1300000000E+02
        angle_coeff 67   3.687664876925238104E+02 1.3400000000E+02
        angle_coeff 68   3.569973444682943295E+02 1.1900000000E+02
        angle_coeff 69   3.334590580198353678E+02 1.2600000000E+02
        angle_coeff 70   2.510750554502289731E+02 8.9600000000E+01
        angle_coeff 71   3.805356309167532913E+02 1.1400000000E+02
        angle_coeff 72   2.863824851229174442E+02 1.3500000000E+02
        angle_coeff 73   1.451527664321636166E+02 8.8300000000E+01
        angle_coeff 74   1.333836232079341642E+02 6.0000000000E+01
        angle_coeff 75   3.805356309167532913E+02 1.7900000000E+02
        angle_coeff 76   2.510750554502289731E+02 1.8000000000E+02
        angle_coeff 77   4.707657289691792926E+02 1.7800000000E+02
        angle_coeff 78   4.707657289691793068E+01 5.9900000000E+01
        angle_coeff 79   4.707657289691793068E+01 6.0300000000E+01
        angle_coeff 80   2.510750554502289731E+02 1.2400000000E+02
        angle_coeff 81   7.061485934537689673E+02 1.1800000000E+02
        angle_coeff 82   1.176914322422948231E+02 1.4400000000E+02
        angle_coeff 83   6.276876386255725038E+02 1.2300000000E+02
        angle_coeff 84   4.707657289691792926E+02 1.1800000000E+02
        angle_coeff 85   3.334590580198353678E+02 9.4800000000E+01
        angle_coeff 86   9.023009805242604386E+01 1.7500000000E+02
        angle_coeff 87   1.569219096563931259E+02 8.2800000000E+01
        angle_coeff 88   1.176914322422948231E+02 7.7600000000E+01
        angle_coeff 89   2.393059122259994922E+02 1.4500000000E+02
        angle_coeff 90   2.510750554502289731E+02 5.0800000000E+01
        angle_coeff 91   3.805356309167532913E+02 1.0400000000E+02
        angle_coeff 92   2.628441986744584824E+02 8.4400000000E+01
        angle_coeff 93   2.157676257775405304E+02 6.3300000000E+01
        angle_coeff 94   2.157676257775405304E+02 6.1000000000E+01
        angle_coeff 95   2.981516283471469251E+02 1.7300000000E+02
        angle_coeff 96   1.922293393290815686E+02 1.7300000000E+02
        angle_coeff 97   8.238400256960638046E+01 5.0900000000E+01
        angle_coeff 98   4.315352515550810608E+02 1.2700000000E+02
        angle_coeff 99   6.276876386255724327E+01 6.7800000000E+01
        angle_coeff 100  1.569219096563931259E+02 1.8000000000E+02
        angle_coeff 101  5.884571612114741583E+02 1.1800000000E+02
        angle_coeff 102  3.017313270271808179E+01 1.1000000000E+02
        angle_coeff 103  2.275367690017699829E+02 9.4800000000E+01
        angle_coeff 104  4.315352515550810608E+02 1.7300000000E+02
        angle_coeff 105  3.452282012440647918E+01 7.8500000000E+01
        angle_coeff 106  7.061485934537689957E+01 1.3800000000E+02
        angle_coeff 107  7.061485934537689957E+01 1.6800000000E+02
        angle_coeff 108  1.569219096563931259E+02 1.6700000000E+02
        angle_coeff 109  1.804601961048520664E+01 1.4900000000E+02
        angle_coeff 110  3.334590580198353678E+02 1.4400000000E+02
        angle_coeff 111  3.569973444682943295E+02 1.4800000000E+02
        angle_coeff 112  3.216899147956058300E+02 1.4400000000E+02
        angle_coeff 113  3.569973444682943295E+02 1.4800000000E+02
        angle_coeff 114  3.216899147956058300E+02 1.4700000000E+02
        angle_coeff 115  3.334590580198353678E+02 1.4400000000E+02
        angle_coeff 116  5.099962063832776039E+03 6.0800000000E+01
        angle_coeff 117  1.451527664321636394E+03 6.8000000000E+01
        angle_coeff 118  2.981516283471469251E+02 1.6100000000E+02
        angle_coeff 119  1.569219096563931259E+02 1.5500000000E+02
        angle_coeff 120  3.099207715713764060E+02 1.5400000000E+02
        angle_coeff 121  2.157676257775405304E+02 7.5300000000E+01
        angle_coeff 122  3.099207715713764060E+02 6.4700000000E+01
        angle_coeff 123  5.492266837973758129E+02 1.7300000000E+02
        angle_coeff 124  3.334590580198353564E+03 4.5800000000E+01
        angle_coeff 125  8.630705031101621216E+02 1.2300000000E+02
        angle_coeff 126  5.492266837973758129E+02 1.2300000000E+02
        angle_coeff 127  4.707657289691792926E+02 1.6600000000E+02
        angle_coeff 128  3.805356309167532913E+02 1.6600000000E+02
        angle_coeff 129  2.039984825533110495E+02 1.3900000000E+02
        angle_coeff 130  6.669181160396708208E+01 1.6100000000E+02
        angle_coeff 131  7.453790708678672772E+00 4.4900000000E+01
        angle_coeff 132  2.510750554502289944E+01 8.4800000000E+01
        angle_coeff 133  1.922293393290815686E+02 1.6100000000E+02
        angle_coeff 134  3.334590580198353678E+02 7.0400000000E+01
        angle_coeff 135  6.276876386255725038E+02 1.7300000000E+02
        angle_coeff 136  1.922293393290815500E+00 5.1600000000E+01
        angle_coeff 137  2.157676257775405304E+01 7.3300000000E+01
        angle_coeff 138  7.453790708678672772E+00 1.7400000000E+02
        angle_coeff 139  4.707657289691792926E+02 1.3200000000E+02
        angle_coeff 140  1.451527664321636166E+02 6.9900000000E+01
        angle_coeff 141  1.569219096563931082E+01 1.4400000000E+02
        angle_coeff 142  1.922293393290815629E+03 9.7900000000E+01
        angle_coeff 143  3.923047741409827722E+02 1.5500000000E+02
        angle_coeff 144  5.884571612114741583E+02 1.0400000000E+02
        angle_coeff 145  1.176914322422948231E+02 1.4900000000E+02
        angle_coeff 146  5.099962063832776380E+02 1.5700000000E+02
        angle_coeff 147  2.863824851229174442E+02 1.6600000000E+02
        angle_coeff 148  3.334590580198353678E+02 8.9800000000E+01
        angle_coeff 149  3.923047741409827722E+02 7.9100000000E+01
        angle_coeff 150  6.669181160396707128E+03 4.5200000000E+01
        angle_coeff 151  4.707657289691792926E+02 1.0100000000E+02
        angle_coeff 152  7.453790708678671990E+02 1.2500000000E+02
        angle_coeff 153  1.686910528806225784E+02 4.9600000000E+01
        angle_coeff 154  5.099962063832776380E+02 1.1200000000E+02
#water spce rigid should use shake
	angle_coeff 155 100 109.47
       #               dihedral_id     k                         n phi0
        dihedral_coeff 1    6.381453154875716960E-01 -1  1
        dihedral_coeff 2    8.150095602294454844E-01 -1  1
        dihedral_coeff 3    1.187858508604206387E+00 -1  1
        dihedral_coeff 4    1.400573613766730396E+00 -1  1
        dihedral_coeff 5    2.234703632887188984E+00 -1  1
        dihedral_coeff 6    2.258604206500955947E+00 -1  1
        dihedral_coeff 7    6.668260038240917398E-01  1  1
        dihedral_coeff 8    1.278680688336519822E+00  1  1
        dihedral_coeff 9    3.656787762906309469E-01 -1  2
        dihedral_coeff 10   1.400573613766730396E+00 -1  2
        dihedral_coeff 11   1.699330783938814537E+00 -1  2
        dihedral_coeff 12   3.991395793499043609E+00 -1  2
        dihedral_coeff 13   5.736137667304014975E+00 -1  2
        dihedral_coeff 14   8.006692160611853737E+00 -1  2
        dihedral_coeff 15   9.990439770554491616E+00 -1  2
        dihedral_coeff 16   0.000000000000000000E+00  1  2
        dihedral_coeff 17   9.990439770554492005E-02  1  2
        dihedral_coeff 18   4.995219885277246141E-01  1  2
        dihedral_coeff 19   7.504780114722753304E-01  1  2
        dihedral_coeff 20   1.216539196940726431E+00  1  2
        dihedral_coeff 21   3.991395793499043609E+00  1  2
        dihedral_coeff 22   2.509560229445506607E-01  1  3
        dihedral_coeff 23   3.011472275334607929E-01  1  3
        dihedral_coeff 24   3.107074569789675111E-01  1  3
        dihedral_coeff 25   6.046845124282982376E-01  1  3
        dihedral_coeff 26   7.002868068833651982E-01  1  3
        dihedral_coeff 27   7.624282982791585894E-01  1  3
        dihedral_coeff 28   8.723709369024855720E-01  1  3
        dihedral_coeff 29   9.010516252390057268E-01  1  3
        dihedral_coeff 30   9.321223709369024224E-01  1  3
        dihedral_coeff 31   9.990439770554492283E-01  1  3
        dihedral_coeff 32   1.120936902485659692E+00  1  3
        dihedral_coeff 33   1.300191204588910132E+00  1  3
        dihedral_coeff 34   1.414913957934990307E+00  1  3
        dihedral_coeff 35   1.837954110898661453E+00  1  3
        dihedral_coeff 36   2.060229445506692070E+00  1  3
        dihedral_coeff 37   2.270554493307839206E+00  1  3
        dihedral_coeff 38   0.000000000000000000E+00  1  4
        dihedral_coeff 39   2.390057361376672906E-01 -1  6
        dihedral_coeff 40   2.390057361376672906E-01  1  6
        dihedral_coeff 41   9.010516252390057268E-01  1  6
        dihedral_coeff 42   8.365200764818354617E-01 -1  2
        dihedral_coeff 43   6.692160611854683916E-01  1  3
        dihedral_coeff 44   1.673040152963670979E-01 -1  6
        dihedral_coeff 45   9.560229445506691903E-02  1  6
        dihedral_coeff 46   2.390057361376672906E-01 -1  3

       # Dummy dihedral for 1-4 interactions
        dihedral_coeff 47 0.0 1 1

       #               improper_id     k                        xi0
        improper_coeff 1    2.000754348119011894E+01 0.0000000000E+00
        improper_coeff 2    4.001508696238023788E+01 3.5264390000E+01
        improper_coeff 3    8.003017392476047576E+01 0.0000000000E+00
        improper_coeff 4    2.000754348119011894E+01 1.8000000000E+02
        improper_coeff 5    4.001508696238023788E+01 -3.5264390000E+01


# ----------------- Output Section -----------------

include "gen.in.output"

     thermo 1000
     thermo_style custom step atoms temp press pe ke ebond epair eangle edihed ecoul evdwl etotal vol density
     dump 1 all custom 10000 dump.lammpstrj id mol type mass q xu yu zu


# ----------------- Run Section -----------------

include "gen.in.run"

# replicate 5 5 5
# molecule water molecule.water
 mass 71 2.016
# create_atoms 0 random 2887 12495 NULL mol water 12348
 group water type 70 71
8661 atoms in group water
 group gly subtract all water
0 atoms in group gly

 delete_atoms group gly
WARNING: Ignoring 'compress yes' for molecular system (../delete_atoms.cpp:125)
Deleted 0 atoms, new total = 8661

 timestep 1.0
 fix wt water shake 0.0001 20 0 b 254 a 155
  0 = # of size 2 clusters
  0 = # of size 3 clusters
  0 = # of size 4 clusters
  2887 = # of frozen angles
  find clusters CPU = 0.000758886 secs
 pair_modify mix geometric
 #fix ens all nve
 fix ens all npt temp 300 300 100 iso 1 1 1000
 #minimize 1e-5 1e-5 10000 10000
 run 1000000
PPPM initialization ...
  using 12-bit tables for long-range coulomb (../kspace.cpp:332)
  G vector (1/distance) = 0.187767
  grid = 15 15 15
  stencil order = 5
  estimated absolute RMS force accuracy = 0.0318079
  estimated relative force accuracy = 9.57887e-05
  using double precision KISS FFT
  3d grid and FFT values/proc = 2197 512
Neighbor list info ...
  update every 1 steps, delay 10 steps, check yes
  max neighbors/atom: 2000, page size: 100000
  master list distance cutoff = 16
  ghost atom cutoff = 16
  binsize = 8, bins = 6 6 6
  1 neighbor lists, perpetual/occasional/extra = 1 0 0
  (1) pair lj/cut/coul/long, perpetual
      attributes: half, newton on
      pair build: half/bin/newton
      stencil: half/bin/3d/newton
      bin: standard
Per MPI rank memory allocation (min/avg/max) = 21.78 | 21.93 | 22.18 Mbytes
Step Atoms Temp Press PotEng KinEng E_bond E_pair E_angle E_dihed E_coul E_vdwl TotEng Volume Density 
       0     8661    300.56639    10684.492   -32457.495    5172.2116            0   -32457.495            0            0    68956.178    8007.0782   -27285.284    69254.081    1.3866338 
    1000     8661    295.62913    894.09792   -31978.272    5087.2501            0   -31978.272            0            0    71398.479    6039.9371   -26891.022    80503.529    1.1928676 
    2000     8661    299.40147    18.741664   -31889.639    5152.1652            0   -31889.639            0            0    71482.164    6038.2884   -26737.474    84734.718    1.1333023 
    3000     8661    301.52234   -230.90466   -31952.768    5188.6617            0   -31952.768            0            0    71332.435    6122.8202   -26764.107    86653.087    1.1082127 
    4000     8661    302.95775   -227.08389   -31880.074    5213.3625            0   -31880.074            0            0    71388.907    6145.0188   -26666.712    87992.883    1.0913388 
    5000     8661    302.95206    -228.5911   -31966.745    5213.2646            0   -31966.745            0            0    71193.482    6249.8518    -26753.48    88329.874    1.0871752 
    6000     8661    301.50438   -241.42792   -31861.203    5188.3527            0   -31861.203            0            0    71403.668    6145.3489    -26672.85    87765.113    1.0941711 
    7000     8661    292.94005      93.7239   -31815.534    5040.9757            0   -31815.534            0            0     71317.24    6280.0198   -26774.559    87957.657    1.0917759 
    8000     8661    301.83919   -396.73967   -31928.189    5194.1142            0   -31928.189            0            0    71358.224    6128.7595   -26734.074    88318.713    1.0873126 
    9000     8661    302.15593    197.49544   -31857.193    5199.5646            0   -31857.193            0            0    71213.962    6337.9997   -26657.628    87943.324    1.0919538 
   10000     8661    303.71456    97.496356    -31839.78    5226.3859            0    -31839.78            0            0    71301.075    6269.0909   -26613.394    88024.791    1.0909432 
   11000     8661    300.82627   -81.053455    -31906.19    5176.6835            0    -31906.19            0            0    71321.007    6186.5019   -26729.507    87449.283    1.0981228 
   12000     8661    304.32625   -235.71227   -31703.322     5236.912            0   -31703.322            0            0    71579.782    6127.6319    -26466.41    88358.516    1.0868228 
   13000     8661    295.20672    289.39431     -31751.8    5079.9811            0     -31751.8            0            0    71365.935    6292.9552   -26671.819     87361.12     1.099231 
   14000     8661    299.39818   -148.97169   -31809.716    5152.1086            0   -31809.716            0            0    71419.845    6180.1302   -26657.607    88237.743    1.0883103 
   15000     8661    301.47016    50.261519    -31780.84    5187.7638            0    -31780.84            0            0     71406.59    6223.5047   -26593.076    88030.986    1.0908664 
   16000     8661    305.90279    92.583503   -31818.299    5264.0413            0   -31818.299            0            0    71315.355    6273.7051   -26554.257      88180.9    1.0890119 
   17000     8661     297.6886   -89.416088   -31855.844    5122.6899            0   -31855.844            0            0    71293.668    6262.7128   -26733.154    88643.931    1.0833234 
   18000     8661    303.47962    37.267617   -31848.813     5222.343            0   -31848.813            0            0    71295.981    6267.7709    -26626.47     88470.73    1.0854443 
   19000     8661     303.5039     284.2405   -31821.602    5222.7608            0   -31821.602            0            0    71179.496    6403.9968   -26598.841    88840.379    1.0809279 
   20000     8661    300.72611    350.41037   -31929.495      5174.96            0   -31929.495            0            0    71020.127    6462.4088   -26754.535    88589.923    1.0839839 
   21000     8661    301.50824   -83.302561   -31822.505     5188.419            0   -31822.505            0            0    71383.697    6210.6529   -26634.086    88111.969    1.0898638 
   22000     8661    297.45807   -67.769852    -31785.96    5118.7228            0    -31785.96            0            0    71408.128    6217.1823   -26667.237     88360.57    1.0867975 
   23000     8661    304.85322    198.72073   -31886.832    5245.9801            0   -31886.832            0            0    71140.428    6386.4772   -26640.852     88137.05    1.0895537 
   24000     8661    296.26811   -140.24706   -31849.427    5098.2457            0   -31849.427            0            0    71304.483    6257.5281   -26751.181    88648.779    1.0832642 
   25000     8661     297.5331    161.70317   -31853.398    5120.0139            0   -31853.398            0            0    71227.837     6328.007   -26733.384    88214.403    1.0885983 
   26000     8661    299.20785    48.094485   -31966.393    5148.8334            0   -31966.393            0            0    71110.398    6337.4893   -26817.559    88301.105    1.0875294 
   27000     8661    299.28694    258.91161   -31879.324    5150.1944            0   -31879.324            0            0    71170.502    6358.2418    -26729.13     87543.79    1.0969373 
   28000     8661    300.23727    71.473562   -31916.224     5166.548            0   -31916.224            0            0    71155.021    6338.6127   -26749.676    88463.866    1.0855285 
   29000     8661    302.15159   -60.478035   -31769.953      5199.49            0   -31769.953            0            0    71410.687    6231.6258   -26570.463    88834.281    1.0810021 
   30000     8661     298.6248    499.12171   -31903.457    5138.8002            0   -31903.457            0            0    71082.549    6426.3097   -26764.657      87362.6    1.0992123 
   31000     8661    302.91541    471.56427    -31879.58     5212.634            0    -31879.58            0            0    71128.273     6400.996   -26666.946    87701.539    1.0949642 
   32000     8661    296.87539    246.42298    -31932.24     5108.696            0    -31932.24            0            0    71070.619    6408.4253   -26823.544    87987.939    1.0914001 
   33000     8661     297.6209    343.34086   -31954.472    5121.5249            0   -31954.472            0            0     71085.44    6370.8705   -26832.947    87308.717    1.0998907 
   34000     8661    300.83058    398.66156   -31885.872    5176.7577            0   -31885.872            0            0    71149.773    6378.0027   -26709.114    87673.846    1.0953101 
   35000     8661    296.06948     9.316125   -31839.928    5094.8276            0   -31839.928            0            0    71309.532    6260.9074     -26745.1     88081.03    1.0902467 
   36000     8661    298.34979   -147.62058   -31886.579    5134.0678            0   -31886.579            0            0    71276.015    6245.3639   -26752.511    88650.897    1.0832383 
   37000     8661    303.53312    -206.7389   -31794.034    5223.2636            0   -31794.034            0            0     71469.77    6144.1156   -26570.771    88255.107    1.0880962 
   38000     8661    299.12463   -94.798872   -31822.952    5147.4014            0   -31822.952            0            0    71432.975    6154.3545    -26675.55    87427.918    1.0983911 
   39000     8661    296.30588   -19.714065   -31881.049    5098.8958            0   -31881.049            0            0    71306.296    6223.8839   -26782.153    87519.201    1.0972455 
   40000     8661    303.26173    106.56284   -31866.614    5218.5935            0   -31866.614            0            0    71217.513    6326.8996    -26648.02    88250.111    1.0881578 
   41000     8661    301.96569   -330.11262   -31774.159     5196.291            0   -31774.159            0            0    71544.967     6093.625   -26577.868    88392.918    1.0863998 
   42000     8661    304.70865   -150.54243   -31918.528    5243.4924            0   -31918.528            0            0    71333.799    6155.0086   -26675.036    87419.651     1.098495 
   43000     8661    301.46391   -113.44715    -31787.36    5187.6562            0    -31787.36            0            0    71464.843    6159.3515   -26599.704     87831.15    1.0933484 
   44000     8661    299.69951    15.033244   -31925.735     5157.294            0   -31925.735            0            0    71233.624    6254.3123   -26768.441    87715.362    1.0947917 
   45000     8661    306.77052    -105.3685   -31911.463    5278.9736            0   -31911.463            0            0     71239.35     6262.023   -26632.489    88396.106    1.0863606 
   46000     8661     298.0474   -97.580562   -31845.076    5128.8641            0   -31845.076            0            0    71304.019    6257.3107   -26716.212    88669.339     1.083013 
   47000     8661    300.50969    232.61662   -31803.602    5171.2357            0   -31803.602            0            0    71261.535     6345.133   -26632.366    88314.867    1.0873599 
   48000     8661     300.3276   -242.16041   -31817.619    5168.1024            0   -31817.619            0            0    71385.394     6206.098   -26649.517     88715.98    1.0824436 
   49000     8661    301.13724    79.922217   -31922.587    5182.0348            0   -31922.587            0            0    71191.687    6297.1048   -26740.552    87860.358    1.0929849 
   50000     8661    293.95995     -187.475   -31868.947    5058.5264            0   -31868.947            0            0    71326.402    6219.3921    -26810.42    88008.904    1.0911401 
   51000     8661    305.75329     318.9145   -31840.832    5261.4688            0   -31840.832            0            0    71181.612    6390.8902   -26579.363    88342.607    1.0870185 
   52000     8661    299.05478   -568.13094   -31817.343    5146.1993            0   -31817.343            0            0    71513.106    6074.3042   -26671.144    89088.399    1.0779187 
   53000     8661    303.95106    11.740082   -31778.673    5230.4556            0   -31778.673            0            0    71395.142    6237.8155   -26548.218    88349.948    1.0869282 
   54000     8661    297.93569    135.64363   -31878.135    5126.9418            0   -31878.135            0            0    71183.899    6348.7905   -26751.193    88173.859    1.0890988 
   55000     8661    299.74066   -271.47734   -31828.309    5158.0022            0   -31828.309            0            0    71383.374    6199.6252   -26670.307    88788.636    1.0815579 
   56000     8661     298.2693   -158.40073   -31811.833    5132.6827            0   -31811.833            0            0    71387.002    6212.6145    -26679.15    88192.066     1.088874 
   57000     8661    303.86357  -0.45474579   -31843.754    5228.9501            0   -31843.754            0            0    71278.716     6294.149   -26614.804    88556.637    1.0843913 
   58000     8661    292.16725   -304.19274   -31838.866    5027.6772            0   -31838.866            0            0    71417.357    6156.9812   -26811.189    88231.552    1.0883867 
   59000     8661    299.53963   -173.45987   -31856.888    5154.5428            0   -31856.888            0            0    71334.313    6219.0394   -26702.345     88460.67    1.0855677 
   60000     8661    293.35813    135.92789   -32066.632    5048.1701            0   -32066.632            0            0    70929.117    6414.5871   -27018.462    87961.128    1.0917328 
   61000     8661    294.19305   -391.33978   -31946.995    5062.5377            0   -31946.995            0            0    71295.151    6172.6486   -26884.458    87991.163    1.0913601 
   62000     8661    297.37541    -428.2016    -31830.93    5117.3004            0    -31830.93            0            0    71459.243    6126.8892    -26713.63    88449.913    1.0856997 
   63000     8661    301.05598    334.69224    -31835.87    5180.6365            0    -31835.87            0            0    71227.285    6351.7238   -26655.234    87591.385    1.0963412 
   64000     8661    297.82061    273.28184    -31798.47    5124.9616            0    -31798.47            0            0    71246.888    6363.9955   -26673.508    88159.607    1.0892749 
   65000     8661     296.4733   -98.159676   -31732.487    5101.7767            0   -31732.487            0            0     71504.13    6176.0374    -26630.71    88289.199    1.0876761 
   66000     8661    299.75588    25.647193   -31936.094     5158.264            0   -31936.094            0            0    71170.149    6301.7369    -26777.83    88229.429    1.0884129 
   67000     8661    302.22343   -139.37836   -31752.242    5200.7262            0   -31752.242            0            0    71471.851    6188.6698   -26551.516    88632.627    1.0834616 
   68000     8661     297.9115   -105.27683   -31806.253    5126.5255            0   -31806.253            0            0    71385.063    6215.7494   -26679.728    88054.934    1.0905698 
   69000     8661    294.98116    135.11939     -31952.2    5076.0996            0     -31952.2            0            0    71118.169    6337.4268     -26876.1    87774.419    1.0940551 
   70000     8661     302.3531   -212.08444    -31813.16    5202.9575            0    -31813.16            0            0    71407.219     6190.981   -26610.202    88564.653    1.0842932 
   71000     8661    301.23414   -89.852475   -31777.991    5183.7023            0   -31777.991            0            0    71393.617    6239.1032   -26594.289    88440.702    1.0858128 
   72000     8661     298.1431    196.97085   -31954.445     5130.511            0   -31954.445            0            0    71074.789    6384.0775   -26823.934    88166.078     1.089195 
   73000     8661    299.55563   -219.60266   -31828.396    5154.8181            0   -31828.396            0            0    71425.226    6156.1884   -26673.578    88365.213    1.0867404 
   74000     8661    301.19958   -149.61027   -31913.957    5183.1076            0   -31913.957            0            0    71244.872    6253.9013    -26730.85    88463.759    1.0855298 
   75000     8661    297.79234   -207.74868   -31692.774     5124.475            0   -31692.774            0            0    71560.174    6153.2396   -26568.299     88799.55    1.0814249 
   76000     8661    297.62423   -189.29666   -31824.249    5121.5821            0   -31824.249            0            0    71402.924     6182.468   -26702.667    88106.343    1.0899334 
   77000     8661     306.6074   -169.54485   -31856.009    5276.1665            0   -31856.009            0            0    71339.571    6213.0839   -26579.843    88631.826    1.0834714 
   78000     8661    296.85658    164.01185   -31846.057    5108.3723            0   -31846.057            0            0    71229.343    6331.4685   -26737.684    88110.952    1.0898764 
   79000     8661    300.30186   -111.79856    -31857.23    5167.6594            0    -31857.23            0            0    71266.831    6283.1849   -26689.571    88928.716    1.0798542 
   80000     8661     302.1663   -29.592256   -31795.707     5199.743            0   -31795.707            0            0    71378.679    6238.6373   -26595.964    88514.497    1.0849076 
   81000     8661    301.90825   -332.62059    -31566.79    5195.3026            0    -31566.79            0            0    71820.449    6024.7035   -26371.487    88643.771    1.0833254 
   82000     8661    300.51234   -287.30555   -31782.511    5171.2815            0   -31782.511            0            0     71490.62    6135.3678   -26611.229     88472.29    1.0854251 
   83000     8661    295.21969   -8.0136518   -31817.562    5080.2044            0   -31817.562            0            0    71326.242    6268.0463   -26737.358    88295.834    1.0875943 
   84000     8661    305.72432    382.24342   -31792.416    5260.9703            0   -31792.416            0            0    71321.359    6296.9074   -26531.446    87055.438    1.1030907 
   85000     8661    304.57977    132.26556   -31825.929    5241.2745            0   -31825.929            0            0      71277.6    6303.5206   -26584.654    87965.715    1.0916759 
   86000     8661    298.86458     110.7051   -31792.153    5142.9264            0   -31792.153            0            0    71376.985    6239.9952   -26649.227    87688.642    1.0951253 
   87000     8661    299.79882    9.7379942    -31802.06    5159.0029            0    -31802.06            0            0    71362.793    6245.7447   -26643.057    88121.319    1.0897482 
   88000     8661    298.40202    509.02546   -31743.548    5134.9665            0   -31743.548            0            0    71255.765    6416.7197   -26608.581    88052.651     1.090598 
   89000     8661    302.01638   -292.34225   -31949.758    5197.1632            0   -31949.758            0            0    71269.945    6192.1849   -26752.595    88187.782    1.0889269 
   90000     8661    301.40162   -114.86047   -31760.505    5186.5843            0   -31760.505            0            0    71473.587    6179.6456    -26573.92    88611.582    1.0837189 
   91000     8661    301.72359    -505.8229   -31749.091    5192.1248            0   -31749.091            0            0    71649.133    6012.4071   -26556.966    88584.102    1.0840551 
   92000     8661    300.60436    206.17275   -31944.165    5172.8649            0   -31944.165            0            0    71102.291    6365.5888     -26771.3    87844.519     1.093182 
   93000     8661    293.75282   -396.96572   -31720.165    5054.9622            0   -31720.165            0            0     71625.95    6063.9256   -26665.203    88034.505    1.0908228 
   94000     8661    298.29612   -322.01375   -31767.172    5133.1441            0   -31767.172            0            0    71519.605    6121.0858   -26634.028    88554.256    1.0844205 
   95000     8661    304.74687     109.4114    -31900.14    5244.1502            0    -31900.14            0            0    71170.498    6338.5774    -26655.99    88475.875    1.0853812 
   96000     8661    296.34923   -174.70193   -31866.731    5099.6418            0   -31866.731            0            0    71332.357    6209.0413   -26767.089    88437.108    1.0858569 
   97000     8661    299.04388    252.55841   -31787.561    5146.0118            0   -31787.561            0            0    71317.927    6305.4457   -26641.549    87697.594    1.0950135 
   98000     8661    303.88083   -20.066183   -31706.326    5229.2471            0   -31706.326            0            0    71508.615    6197.8034   -26477.079    88357.176    1.0868393 
   99000     8661    295.05517   -199.32891   -31833.629    5077.3731            0   -31833.629            0            0    71377.518    6199.2801   -26756.256     88387.65    1.0864645 
  100000     8661    300.00231   -507.96226   -31713.414    5162.5046            0   -31713.414            0            0    71663.777    6036.2543   -26550.909    88840.324    1.0809286 
  101000     8661    295.28605    315.00499   -31831.413    5081.3462            0   -31831.413            0            0    71179.796    6397.1887   -26750.067    88153.891    1.0893455 
  102000     8661    302.92186    70.976019    -31743.45     5212.745            0    -31743.45            0            0    71481.232    6184.8956   -26530.705    87454.399    1.0980585 
  103000     8661    300.65521   -307.65907   -31883.487    5173.7399            0   -31883.487            0            0    71316.913    6211.4595   -26709.748    88808.993      1.08131 
  104000     8661    299.58883   -105.07709   -31905.649    5155.3895            0   -31905.649            0            0    71270.234    6235.1207   -26750.259    88032.375    1.0908492 
  105000     8661    298.60447    548.53352    -31870.19    5138.4504            0    -31870.19            0            0    71101.698    6438.8057    -26731.74      87640.1    1.0957318 
  106000     8661    297.66003   -300.68693   -31996.156    5122.1982            0   -31996.156            0            0    71195.896    6219.9145   -26873.957    88053.045    1.0905932 
  107000     8661     299.1188   -279.31539   -31780.064    5147.3011            0   -31780.064            0            0    71533.386     6098.619   -26632.763    87926.487    1.0921629 
  108000     8661    296.37772    354.27899   -31926.143     5100.132            0   -31926.143            0            0    71040.942    6444.5009   -26826.011    87987.563    1.0914048 
  109000     8661    307.00696    47.798666   -31892.366    5283.0421            0   -31892.366            0            0    71189.104    6329.4045   -26609.324    88616.493    1.0836589 
  110000     8661    301.15955   -24.505504   -31797.594    5182.4187            0   -31797.594            0            0    71361.853    6249.5426   -26615.175    88372.397    1.0866521 
  111000     8661    300.40284   -378.90794   -31855.522    5169.3971            0   -31855.522            0            0    71380.853    6176.0627   -26686.125    88655.417    1.0831831 
  112000     8661    301.52761    525.45914   -31795.517    5188.7523            0   -31795.517            0            0    71182.178    6432.4549   -26606.764    87772.409    1.0940801 
  113000     8661    296.83451    275.97077   -31914.924    5107.9924            0   -31914.924            0            0     71098.31    6399.4333   -26806.931    88037.915    1.0907806 
  114000     8661      304.141   -100.77099   -31838.066    5233.7241            0   -31838.066            0            0    71340.586    6233.0088   -26604.342    88677.856     1.082909 
  115000     8661    296.43175   -53.936733   -31851.247    5101.0617            0   -31851.247            0            0    71290.848    6271.4139   -26750.185    88596.262    1.0839063 
  116000     8661    303.93689   -15.799742   -31879.382    5230.2117            0   -31879.382            0            0     71232.68    6299.9054    -26649.17    88613.967    1.0836898 
  117000     8661    300.03134    -470.1702   -31883.708    5163.0042            0   -31883.708            0            0    71364.261    6163.0253   -26720.703    89239.796      1.07609 
  118000     8661    293.29426     217.9303   -31847.869    5047.0711            0   -31847.869            0            0    71220.131    6342.3611   -26800.798    87817.852     1.093514 
  119000     8661    298.81894   -17.375728   -31765.593    5142.1409            0   -31765.593            0            0    71415.835    6228.6034   -26623.452    88493.785    1.0851615 
  120000     8661     299.6637   -118.21897   -31786.874    5156.6779            0   -31786.874            0            0    71405.546    6215.5117   -26630.196    88516.434    1.0848838 
  121000     8661    304.11697    73.498795   -31847.404    5233.3106            0   -31847.404            0            0    71266.914    6297.7604   -26614.093    88355.995    1.0868538 
  122000     8661    301.56543    31.639836   -31800.825    5189.4032            0   -31800.825            0            0    71350.396    6258.4809   -26611.421    88118.892    1.0897782 
  123000     8661    295.89526    709.26184   -31904.865    5091.8296            0   -31904.865            0            0     71015.14    6484.5691   -26813.035     87062.68     1.102999 
  124000     8661    302.83559   -134.84615    -31809.26    5211.2603            0    -31809.26            0            0    71437.188    6162.9512       -26598    87826.396    1.0934076 
  125000     8661    297.15961   -20.761792   -32002.136    5113.5869            0   -32002.136            0            0    71150.959    6261.0598   -26888.549    87129.377    1.1021546 
  126000     8661    299.26065   -30.045387   -31779.847     5149.742            0   -31779.847            0            0    71398.844    6235.3266   -26630.105    88195.083    1.0888368 
  127000     8661    300.43724   -22.673837   -31844.982    5169.9891            0   -31844.982            0            0    71273.373    6290.2803   -26674.993    88418.274    1.0860882 
  128000     8661    300.32919    469.04869   -31840.104    5168.1298            0   -31840.104            0            0    71163.405    6405.4266   -26671.975    87912.098    1.0923417 
  129000     8661    295.35936    123.29567   -31900.309    5082.6078            0   -31900.309            0            0    71159.663    6348.4503   -26817.701    88386.723    1.0864759 
  130000     8661    299.87495    540.75909   -31960.918    5160.3131            0   -31960.918            0            0    70920.663    6529.7237   -26800.605      88139.7    1.0895209 
  131000     8661     296.6684    43.958252   -31941.039     5105.134            0   -31941.039            0            0    71127.943    6346.0909   -26835.905    88257.113    1.0880715 
  132000     8661    294.62036   -400.63709   -31988.231    5069.8908            0   -31988.231            0            0    71228.144    6195.2424    -26918.34    88587.563    1.0840128 
  133000     8661    306.79505   -35.190856   -31900.863    5279.3956            0   -31900.863            0            0    71196.949    6310.5722   -26621.467     88794.48    1.0814867 
  134000     8661    302.31065    430.38554   -31966.351    5202.2271            0   -31966.351            0            0    70944.126    6505.5169   -26764.124    88520.549    1.0848334 
  135000     8661    298.46273   -172.69768   -31816.099    5136.0112            0   -31816.099            0            0    71398.927    6193.0669   -26680.088    88362.463    1.0867742 
  136000     8661    304.52277   -68.740933   -31889.641    5240.2937            0   -31889.641            0            0     71250.66     6272.921   -26649.348    88330.103    1.0871724 
  137000     8661    298.47922    248.10035    -31772.41    5136.2951            0    -31772.41            0            0    71280.769    6356.8235   -26636.115    88573.352    1.0841867 
  138000     8661    300.95386   -89.574738   -31916.667    5178.8792            0   -31916.667            0            0    71270.455    6224.3841   -26737.788    87994.992    1.0913127 
  139000     8661    304.54325   -120.48015   -31924.567    5240.6462            0   -31924.567            0            0    71285.647     6204.816   -26683.921    87668.995    1.0953707 
  140000     8661    302.21413   -178.72496   -31766.871    5200.5661            0   -31766.871            0            0    71433.929    6210.3872   -26566.305    88755.696    1.0819593 
  141000     8661    302.56258   -4.7264285   -31785.992    5206.5623            0   -31785.992            0            0    71404.665    6218.2275   -26579.429    88125.624     1.089695 
  142000     8661    302.05485   -146.20745   -31909.962    5197.8252            0   -31909.962            0            0     71286.86    6216.5836   -26712.136    88080.279    1.0902559 
  143000     8661    305.57552   -277.19066   -31933.401    5258.4096            0   -31933.401            0            0    71243.754    6237.3356   -26674.992    88989.622    1.0791151 
  144000     8661    296.22031    218.77136    -31995.71    5097.4233            0    -31995.71            0            0    70962.473    6454.1288   -26898.287    88446.229     1.085745 
  145000     8661    294.79778    318.47163   -31785.381    5072.9439            0   -31785.381            0            0    71216.396     6409.741   -26712.437    88508.799    1.0849774 
  146000     8661    297.55977    133.63702   -31847.286     5120.473            0   -31847.286            0            0    71240.151    6319.5994   -26726.813    88196.128    1.0888239 
  147000     8661    295.74473    39.965175    -31924.36    5089.2393            0    -31924.36            0            0    71214.391    6270.9003    -26835.12    87514.658    1.0973024 
  148000     8661    295.44398   -328.31037   -31655.205    5084.0639            0   -31655.205            0            0    71704.581    6049.5004   -26571.141    88166.899    1.0891848 
  149000     8661     296.6825   -78.819587    -31895.85    5105.3767            0    -31895.85            0            0    71234.863    6278.6099   -26790.474     88633.05    1.0834564 
  150000     8661    303.00917    508.16713   -31911.174    5214.2474            0   -31911.174            0            0    71043.693    6450.2184   -26696.927    88023.332    1.0909613 
  151000     8661    298.87918   -67.057258   -31580.752    5143.1776            0   -31580.752            0            0    71675.909    6153.5505   -26437.575    88766.642    1.0818259 
  152000     8661    298.94691   -345.13421   -31677.555    5144.3431            0   -31677.555            0            0    71710.074       6023.5   -26533.212     87894.65    1.0925585 
  153000     8661    296.80833   -250.43011   -31890.337    5107.5419            0   -31890.337            0            0    71287.092    6234.5989   -26782.795    88757.725    1.0819345 
  154000     8661    300.87809   -321.75058   -31874.177    5177.5752            0   -31874.177            0            0    71343.109    6192.6837   -26696.602    88812.562    1.0812665 
  155000     8661    302.76817    105.66118   -31999.195    5210.1001            0   -31999.195            0            0    71047.337    6367.5082   -26789.095    88330.635    1.0871658 
  156000     8661    301.59452   -363.97548    -31818.28    5189.9038            0    -31818.28            0            0    71463.161    6129.8553   -26628.376    88687.907    1.0827863 
  157000     8661    298.87796      206.572   -31972.293    5143.1567            0   -31972.293            0            0    71048.948     6392.418   -26829.136    88119.202    1.0897744 
  158000     8661    304.07246   -287.77884   -32005.996    5232.5447            0   -32005.996            0            0    71178.675    6222.8132   -26773.452    88881.539    1.0804274 
  159000     8661    302.20801   -21.060857   -32005.341    5200.4609            0   -32005.341            0            0    71117.783    6293.3917    -26804.88    87900.696    1.0924834 
  160000     8661    297.26266     686.3708    -31970.35    5115.3601            0    -31970.35            0            0    70884.835    6556.9199    -26854.99    87830.281    1.0933592 
  161000     8661    301.23496   -147.33322   -31957.525    5183.7164            0   -31957.525            0            0    71229.208    6226.7341   -26773.809    88077.322    1.0902925 
  162000     8661    299.31151    395.73795   -31954.942    5150.6172            0   -31954.942            0            0      70989.8    6469.7383   -26804.325    87902.587    1.0924599 
  163000     8661    300.44018    359.60295    -32002.93    5170.0396            0    -32002.93            0            0    70956.914    6451.6354    -26832.89     87652.68    1.0955746 
  164000     8661    300.82908     52.52453   -31864.874    5176.7319            0   -31864.874            0            0    71265.006    6278.0362   -26688.142    88130.682    1.0896324 
  165000     8661     300.8692    5.1637932   -31848.811    5177.4223            0   -31848.811            0            0    71261.014    6299.7872   -26671.388    88636.437     1.083415 
  166000     8661    302.49111   -291.99561   -31879.548    5205.3324            0   -31879.548            0            0    71375.731    6153.6356   -26674.215    87885.003    1.0926784 
  167000     8661    301.61564   -223.02098   -31800.741    5190.2672            0   -31800.741            0            0    71420.119    6187.8703   -26610.474    88571.979    1.0842035 
  168000     8661      299.481     349.3178   -31869.031    5153.5339            0   -31869.031            0            0     71085.04     6452.212   -26715.497    88531.599     1.084698 
  169000     8661    301.78408   -199.02648   -31961.307    5193.1657            0   -31961.307            0            0    71190.137    6263.3687   -26768.141    88640.688    1.0833631 
  170000     8661    297.57911    54.864255   -31873.092    5120.8057            0   -31873.092            0            0    71151.886    6379.1745   -26752.286    89048.796    1.0783981 
  171000     8661    298.17992   -14.269453   -31824.013    5131.1447            0   -31824.013            0            0    71306.429     6280.479   -26692.868    88543.837    1.0845481 
  172000     8661    294.80296    296.85129   -31796.408    5073.0331            0   -31796.408            0            0    71225.494    6390.3482   -26723.375    88323.522    1.0872534 
  173000     8661    304.99339    313.91494   -31754.382    5248.3923            0   -31754.382            0            0    71291.296    6365.2164    -26505.99    88331.408    1.0871563 
  174000     8661    302.67913    204.67792    -31886.02     5208.568            0    -31886.02            0            0    71157.447    6370.9913   -26677.451    88376.155    1.0866059 
  175000     8661    301.80371   -139.88985   -31921.405    5193.5036            0   -31921.405            0            0    71232.475    6260.6766   -26727.901    88577.724    1.0841332 
  176000     8661    298.85701    287.48947   -31731.917    5142.7961            0   -31731.917            0            0    71322.055    6354.0678   -26589.121    88209.254    1.0886618 
  177000     8661    295.02331   -432.13716   -31974.809    5076.8249            0   -31974.809            0            0    71247.834    6188.8478   -26897.984    88490.452    1.0852024 
  178000     8661    302.76136   -221.79277    -32004.25    5209.9831            0    -32004.25            0            0    71158.189    6250.3383   -26794.267    88500.331    1.0850812 
  179000     8661    292.93947    133.72778   -31880.464    5040.9658            0   -31880.464            0            0    71198.006    6332.7661   -26839.498    87899.721    1.0924955 
  180000     8661    300.37644    366.98609   -31886.309    5168.9427            0   -31886.309            0            0    71089.643     6432.198   -26717.366    88161.684    1.0892493 
  181000     8661    295.93239   -282.73823   -31896.399    5092.4686            0   -31896.399            0            0    71378.118     6140.781   -26803.931    87749.618    1.0943643 
  182000     8661    300.47521    44.866063   -31698.246    5170.6425            0   -31698.246            0            0    71508.001    6204.7532   -26527.604    88263.819    1.0879888 
  183000     8661     301.2696   -268.18906    -31711.11    5184.3125            0    -31711.11            0            0    71591.035    6106.8299   -26526.797    88369.519    1.0866875 
  184000     8661    299.21828    134.90485   -31840.868    5149.0129            0   -31840.868            0            0    71318.123    6251.0417   -26691.855    87298.558    1.1000187 
  185000     8661    299.60926   -15.853546   -31876.856    5155.7409            0   -31876.856            0            0    71291.487    6241.7291   -26721.115    87725.463    1.0946656 
  186000     8661    295.86075    89.720814   -31779.318    5091.2358            0   -31779.318            0            0    71349.917    6281.4292   -26688.082    88274.773    1.0878538 
  187000     8661    299.44913   -94.784203   -31820.985    5152.9855            0   -31820.985            0            0    71310.388    6271.8127       -26668      89067.6    1.0781704 
  188000     8661    300.03328    252.21212   -31753.525    5163.0376            0   -31753.525            0            0    71334.031    6326.7459   -26590.487    88113.872    1.0898403 
  189000     8661    293.75857   -372.12807   -31725.835     5055.061            0   -31725.835            0            0    71612.206    6069.3492   -26670.774    88313.756    1.0873736 
  190000     8661    301.84899   -179.96837   -31775.408    5194.2827            0   -31775.408            0            0    71425.026    6211.4592   -26581.126    88999.106    1.0790001 
  191000     8661    305.70995   -109.54228   -31844.725    5260.7229            0   -31844.725            0            0    71295.905    6274.9599   -26584.003    89140.847    1.0772844 
  192000     8661      304.289    131.85976   -31881.753    5236.2709            0   -31881.753            0            0    71144.503    6386.2299   -26645.482    88766.279    1.0818303 
  193000     8661    297.57136   -105.00764   -31880.801    5120.6723            0   -31880.801            0            0    71231.577    6296.9397   -26760.129    88812.694    1.0812649 
  194000     8661    300.54367   -305.76722   -31831.718    5171.8206            0   -31831.718            0            0    71442.496    6133.6702   -26659.898    88240.183    1.0882802 
  195000     8661    299.59167   -9.8534319    -31719.91    5155.4384            0    -31719.91            0            0    71506.919    6182.7815   -26564.472    87694.769    1.0950488 
  196000     8661    297.10685   -57.343161   -31749.349    5112.6789            0   -31749.349            0            0    71459.587    6199.8293    -26636.67    88001.644    1.0912302 
  197000     8661    297.49474    134.14203   -31944.294    5119.3538            0   -31944.294            0            0    71131.725     6335.692    -26824.94    87777.923    1.0940114 
  198000     8661    302.27882    210.76897   -31865.978    5201.6793            0   -31865.978            0            0    71187.491    6354.9887   -26664.298    88107.192    1.0899229 
  199000     8661    299.19055   -226.61972   -31732.446    5148.5357            0   -31732.446            0            0    71533.605      6144.97   -26583.911    88865.996    1.0806164 
  200000     8661    302.19278    -786.1569   -31962.716    5200.1988            0   -31962.716            0            0    71443.925    6002.9284   -26762.518    88228.901    1.0884194 
  201000     8661     297.5304    503.20209   -31746.552    5119.9676            0   -31746.552            0            0     71228.87    6437.6881   -26626.584    88463.447    1.0855336 
  202000     8661     302.0447     -144.358   -32002.113    5197.6506            0   -32002.113            0            0     71148.39     6258.077   -26804.463    88017.181    1.0910375 
  203000     8661    296.14341   -292.30687   -31829.071       5096.1            0   -31829.071            0            0    71403.965    6178.9489   -26732.972    88740.812    1.0821407 
  204000     8661    300.65939    -156.7297   -31794.573    5173.8119            0   -31794.573            0            0    71401.657    6214.3447   -26620.761    88699.106    1.0826496 
  205000     8661     300.3634    200.24382   -31946.763    5168.7184            0   -31946.763            0            0    71101.339    6359.0686   -26778.044     87656.62    1.0955253 
  206000     8661    301.71491    457.40264   -31818.739    5191.9754            0   -31818.739            0            0    71119.272    6476.0682   -26626.763    88551.919    1.0844491 
  207000     8661    301.36624   -22.688059    -32007.74    5185.9754            0    -32007.74            0            0    71091.149     6314.656   -26821.764    88249.749    1.0881623 
  208000     8661    297.77288    574.78176   -32078.656    5124.1401            0   -32078.656            0            0    70772.352     6562.733   -26954.516    87303.798    1.0999527 
  209000     8661    299.55755    164.76714   -31829.633    5154.8512            0   -31829.633            0            0    71240.988    6337.1386   -26674.782    88208.585    1.0886701 
  210000     8661    301.92715     120.5933   -31753.699    5195.6277            0   -31753.699            0            0    71372.085    6284.0159   -26558.071     87971.69    1.0916017 
  211000     8661    299.68655    79.496761   -31774.347    5157.0709            0   -31774.347            0            0    71360.106    6274.7648   -26617.276     88351.74    1.0869061 
  212000     8661    295.97844   -66.571744   -31822.276    5093.2611            0   -31822.276            0            0    71338.758     6251.018   -26729.015    88604.066    1.0838108 
  213000     8661    299.28152    454.25813   -31691.713    5150.1011            0   -31691.713            0            0    71358.272    6357.4227   -26541.612    88011.696    1.0911055 
  214000     8661    298.45536   -253.02023   -31840.287    5135.8844            0   -31840.287            0            0    71365.942    6204.4512   -26704.403    88849.429    1.0808178 
  215000     8661    302.51309    342.68843   -31849.374    5205.7108            0   -31849.374            0            0    71144.407     6416.667   -26643.663    88266.717    1.0879531 
  216000     8661    301.43294   -4.7830698   -31725.153    5187.1233            0   -31725.153            0            0    71506.457    6181.6984    -26538.03    88004.707    1.0911922 
  217000     8661    302.17834    268.97363   -31844.994    5199.9502            0   -31844.994            0            0    71201.696     6364.051   -26645.044    88125.773    1.0896931 
  218000     8661    298.45176    -271.1438   -31830.748    5135.8225            0   -31830.748            0            0    71393.126    6186.7809   -26694.925    88732.842    1.0822379 
  219000     8661    302.59746    92.491579   -31852.754    5207.1626            0   -31852.754            0            0    71237.891    6323.1269   -26645.591    88382.558    1.0865271 
  220000     8661      297.194     317.6883   -31859.205    5114.1786            0   -31859.205            0            0    71167.575    6378.8783   -26745.026    88134.973    1.0895794 
  221000     8661    296.26114   -81.630684   -31993.429    5098.1259            0   -31993.429            0            0    71146.135    6267.1742   -26895.303    87726.564    1.0946519 
  222000     8661    299.42217    221.24113   -31792.242    5152.5215            0   -31792.242            0            0    71296.514    6322.0993   -26639.721     88205.43     1.088709 
  223000     8661    300.16572   -110.01544   -31908.357    5165.3167            0   -31908.357            0            0    71269.162    6231.7496   -26743.041    88048.328    1.0906516 
  224000     8661    304.36957    432.94284   -31815.789    5237.6573            0   -31815.789            0            0    71179.869    6414.1016   -26578.132    87983.876    1.0914505 
  225000     8661    301.40245   -337.72307   -31848.478    5186.5986            0   -31848.478            0            0    71390.592    6174.4342    -26661.88     89016.54    1.0787888 
  226000     8661    298.76688   -305.71186   -31789.259    5141.2451            0   -31789.259            0            0    71441.785    6184.8548   -26648.014     89286.08    1.0755321 
  227000     8661    297.03963   -207.38812   -31795.495    5111.5222            0   -31795.495            0            0     71423.67    6192.8008   -26683.973     88677.89    1.0829086 
  228000     8661    300.45516   -199.72567   -31830.642    5170.2974            0   -31830.642            0            0    71365.083    6215.5078   -26660.345     88622.35    1.0835873 
  229000     8661     300.1918    -221.1908   -31872.833    5165.7654            0   -31872.833            0            0    71310.674    6230.1535   -26707.068    88745.152    1.0820878 
  230000     8661    299.45074    45.056644   -31799.516    5153.0131            0   -31799.516            0            0    71342.293    6269.7211   -26646.503    88372.143    1.0866552 
  231000     8661     301.8324    52.416481   -31850.052    5193.9973            0   -31850.052            0            0    71297.032    6263.9903   -26656.055    88171.607    1.0891267 
  232000     8661    305.44699   -267.37182   -31805.496     5256.198            0   -31805.496            0            0    71475.047    6129.3437   -26549.298    88373.905    1.0866335 
  233000     8661    294.92437   -134.35076   -31732.607    5075.1224            0   -31732.607            0            0    71458.446     6215.524   -26657.484    88613.459     1.083696 
  234000     8661    303.95111   -283.23589   -31844.761    5230.4564            0   -31844.761            0            0     71410.94    6154.2814   -26614.304    88006.878    1.0911653 
  235000     8661    302.28375    54.540097   -31889.621    5201.7642            0   -31889.621            0            0    71197.376     6321.263   -26687.857     88439.56    1.0858268 
  236000     8661    301.36308    564.66356   -31737.745    5185.9212            0   -31737.745            0            0    71199.321    6477.0072   -26551.823    88883.687    1.0804013 
  237000     8661    305.00501    251.07403   -31838.601    5248.5923            0   -31838.601            0            0    71239.023     6330.705   -26590.009    88023.573    1.0909583 
  238000     8661    298.46586   -4.3417823   -31927.703     5136.065            0   -31927.703            0            0    71215.604    6271.5615   -26791.638    87622.856    1.0959475 
  239000     8661    303.12751    -277.4551   -31697.966    5216.2838            0   -31697.966            0            0    71580.842    6130.9344   -26481.682    88793.118    1.0815033 
  240000     8661    299.08946    10.856084   -31796.006    5146.7962            0   -31796.006            0            0    71339.605    6272.2406    -26649.21    88716.728    1.0824345 
  241000     8661    294.27212   -394.84583   -31890.851    5063.8983            0   -31890.851            0            0    71350.345    6171.2835   -26826.952    88718.606    1.0824116 
  242000     8661    297.18946   -234.12512   -31979.914    5114.1005            0   -31979.914            0            0    71144.012    6290.1028   -26865.814     88897.75    1.0802304 
  243000     8661     298.7452    25.455675   -32014.482    5140.8721            0   -32014.482            0            0    71047.549    6352.2867    -26873.61    88112.492    1.0898574 
  244000     8661    302.85215     214.2684   -31866.726    5211.5454            0   -31866.726            0            0    71226.515    6318.3364    -26655.18    87723.514    1.0946899 
  245000     8661    302.77081    184.94951   -31795.064    5210.1456            0   -31795.064            0            0    71297.865    6312.9036   -26584.919    88249.305    1.0881678 
  246000     8661    303.70316    90.128436   -31861.812    5226.1897            0   -31861.812            0            0    71240.204    6311.2652   -26635.622    88548.457    1.0844915 
  247000     8661    301.12892   -328.87012   -31930.613    5181.8916            0   -31930.613            0            0    71326.708    6152.1046   -26748.721    88158.036    1.0892943 
  248000     8661    296.82534   -57.005977   -31720.699    5107.8347            0   -31720.699            0            0    71431.485    6258.5918   -26612.864    88929.676    1.0798425 
  249000     8661    300.84146   -155.54382   -31946.056    5176.9449            0   -31946.056            0            0    71233.404    6232.4924   -26769.111    88162.104    1.0892441 
  250000     8661     297.9729   -109.21168   -31839.943    5127.5822            0   -31839.943            0            0    71329.968    6240.8142    -26712.36    88391.805    1.0864135 
  251000     8661    301.35985    173.65076   -32046.839    5185.8655            0   -32046.839            0            0    70952.184    6414.8206   -26860.973    87905.132    1.0924282 
  252000     8661    299.13276    186.88605    -31875.56    5147.5413            0    -31875.56            0            0    71213.034    6320.5259   -26728.018    87818.975       1.0935 
  253000     8661    301.92833   -66.401003   -32034.079     5195.648            0   -32034.079            0            0    71046.788    6327.7478   -26838.431    88217.073    1.0885653 
  254000     8661    307.97353    392.31275   -31853.337    5299.6752            0   -31853.337            0            0    71137.797    6422.5651   -26553.662    88343.455    1.0870081 
  255000     8661     303.8186    26.069103   -31802.596    5228.1762            0   -31802.596            0            0    71301.659    6302.8583    -26574.42    88807.536    1.0813277 
  256000     8661    303.28553   -138.31388   -31943.829     5219.003            0   -31943.829            0            0    71162.795    6297.4235   -26724.826    89037.174    1.0785388 
  257000     8661    304.24066    328.57199    -31913.08    5235.4391            0    -31913.08            0            0    71049.827    6445.3687   -26677.641    88428.099    1.0859676 
  258000     8661    304.34209    193.49761   -31677.806    5237.1846            0   -31677.806            0            0    71407.436    6322.0281   -26440.622    88929.523    1.0798444 
  259000     8661    299.07313   -184.66966   -31717.696    5146.5151            0   -31717.696            0            0    71501.196    6192.5017   -26571.181    89223.699    1.0762841 
  260000     8661     300.4375   -164.65088   -31762.543    5169.9934            0   -31762.543            0            0    71497.443    6149.2735    -26592.55    88144.226     1.089465 
  261000     8661    299.93712    74.187915   -31830.468    5161.3829            0   -31830.468            0            0    71260.257    6318.5637   -26669.085    88307.706    1.0874481 
  262000     8661    301.76351    402.06542   -31908.569    5192.8118            0   -31908.569            0            0    71050.516    6452.5942   -26715.757    88711.269    1.0825011 
  263000     8661    301.76489    124.97745   -31835.062    5192.8355            0   -31835.062            0            0    71247.446    6327.3041   -26642.226    88230.895    1.0883948 
  264000     8661    298.48409   -25.660932   -31689.622    5136.3789            0   -31689.622            0            0    71524.389    6200.2332   -26553.243    88176.182    1.0890701 
  265000     8661    302.48187   -253.67903   -31765.377    5205.1734            0   -31765.377            0            0     71543.21    6102.9894   -26560.203    88180.305    1.0890192 
  266000     8661    300.53234   -274.69137   -31802.041    5171.6256            0   -31802.041            0            0    71468.109    6141.5527   -26630.416    88124.499    1.0897089 
  267000     8661    299.15414    44.033155   -31899.659    5147.9092            0   -31899.659            0            0    71224.962    6283.4828    -26751.75    88096.682     1.090053 
  268000     8661    300.10389   -366.09349   -31758.905    5164.2527            0   -31758.905            0            0    71551.742     6102.178   -26594.653    88383.344    1.0865175 
  269000     8661    302.35642    216.36926    -31821.19    5203.0147            0    -31821.19            0            0    71307.116    6286.3254   -26618.175    87492.172    1.0975845 
  270000     8661    299.52132   -266.20735   -31967.378    5154.2277            0   -31967.378            0            0    71199.428    6245.7866    -26813.15    88849.544    1.0808164 
  271000     8661    300.33419    21.696152   -31879.026    5168.2158            0   -31879.026            0            0    71164.927    6366.3635   -26710.811    89275.926    1.0756545 
  272000     8661    296.71827    57.898498   -31835.176    5105.9922            0   -31835.176            0            0    71260.651     6314.686   -26729.184    88442.242    1.0857939 
  273000     8661    305.29863   -41.436436   -31872.027    5253.6449            0   -31872.027            0            0    71280.697     6257.841   -26618.382    88415.221    1.0861258 
  274000     8661    300.62325   -73.090487    -31836.29    5173.1899            0    -31836.29            0            0    71370.506    6205.5002     -26663.1    88038.411    1.0907744 
  275000     8661    301.09606   -543.82269   -31661.135    5181.3262            0   -31661.135            0            0    71683.282    6066.1307   -26479.809    89627.638    1.0714334 
  276000     8661    299.29119    30.888446   -31873.629    5150.2676            0   -31873.629            0            0    71252.391    6282.3601   -26723.361    88366.015    1.0867306 
  277000     8661    301.64304    49.848814    -31993.69    5190.7387            0    -31993.69            0            0    71098.831    6316.1228   -26802.951     87865.66     1.092919 
  278000     8661    299.02779    30.816475   -31988.363    5145.7349            0   -31988.363            0            0    71158.308    6264.6779   -26842.628    87046.557    1.1032033 
  279000     8661    303.99228    144.13223   -31983.126     5231.165            0   -31983.126            0            0    71071.824     6358.423   -26751.961     87962.45    1.0917164 
  280000     8661    298.64617    339.74062   -31930.949     5139.168            0   -31930.949            0            0     71094.48    6387.9831   -26791.781    87598.059    1.0962577 
  281000     8661      301.961     268.0899   -31864.155    5196.2103            0   -31864.155            0            0    71168.582    6379.0889   -26667.944    88139.872    1.0895188 
  282000     8661    294.31139   -8.7839116   -31825.006    5064.5741            0   -31825.006            0            0    71329.765    6253.2808   -26760.431    88208.869    1.0886666 
  283000     8661    296.46497   -76.335463   -31816.885    5101.6333            0   -31816.885            0            0    71400.448    6193.5769   -26715.251    87673.985    1.0953083 
  284000     8661    302.69662    150.15124   -31905.809    5208.8689            0   -31905.809            0            0    71191.299    6317.7861    -26696.94    87972.553     1.091591 
  285000     8661    305.08174    -376.5277   -31803.161    5249.9127            0   -31803.161            0            0     71460.03    6147.3151   -26553.248     88683.86    1.0828357 
  286000     8661    299.87293    23.597111   -31672.228    5160.2783            0   -31672.228            0            0    71474.051    6267.6299    -26511.95     89119.28    1.0775452 
  287000     8661      298.042    71.503392   -31791.279    5128.7713            0   -31791.279            0            0    71353.066    6270.2588   -26662.507    88078.844    1.0902737 
  288000     8661    302.48029   -548.55744   -31758.703    5205.1464            0   -31758.703            0            0    71640.817    6008.7188   -26553.557    88540.718    1.0845863 
  289000     8661    298.96512    84.563482   -31849.691    5144.6565            0   -31849.691            0            0    71248.726    6312.0226   -26705.034    88408.961    1.0862027 
  290000     8661     296.9648    169.32054   -31890.659    5110.2346            0   -31890.659            0            0    71196.545     6325.905   -26780.425    88065.022    1.0904448 
  291000     8661    300.62019    215.04055   -31830.709    5173.1372            0   -31830.709            0            0    71250.383    6324.6114   -26657.571    88096.322    1.0900574 
  292000     8661    296.87707   -298.03117   -31901.819    5108.7248            0   -31901.819            0            0    71331.031    6177.0055   -26793.095    88688.288    1.0827816 
  293000     8661    299.56781    305.46004    -31955.92    5155.0277            0    -31955.92            0            0    71018.602    6438.6266   -26800.892    88289.684    1.0876701 
  294000     8661    305.35238    323.41273   -31830.114    5254.5698            0   -31830.114            0            0     71230.89    6349.2168   -26575.544    87979.548    1.0915042 
  295000     8661    302.64111    26.074243   -31957.899    5207.9137            0   -31957.899            0            0    71149.517    6302.3016   -26749.986    87749.543    1.0943652 
  296000     8661    293.93607   -110.78462   -31929.422    5058.1155            0   -31929.422            0            0    71159.004     6324.296   -26871.306    88916.241    1.0800057 
  297000     8661    305.96204    295.74706   -31940.539    5265.0609            0   -31940.539            0            0    71098.873    6374.3148   -26675.478    87871.126     1.092851 
  298000     8661    300.44666   -252.97428   -31869.309    5170.1512            0   -31869.309            0            0    71367.084    6170.7039   -26699.158     87870.99    1.0928527 
  299000     8661    298.29894     -44.3589   -31728.364    5133.1928            0   -31728.364            0            0    71508.301    6172.2252   -26595.172    87816.554    1.0935301 
  300000     8661    298.50899    351.49136   -31884.783    5136.8074            0   -31884.783            0            0    71120.525    6406.0217   -26747.976    88044.671    1.0906969 
  301000     8661    299.40939   -38.385648   -31762.568    5152.3015            0   -31762.568            0            0    71452.272    6195.1264   -26610.267    88056.949    1.0905448 
  302000     8661    302.83631    461.32877   -31845.669    5211.2728            0   -31845.669            0            0    71107.386    6451.2523   -26634.396    88452.554    1.0856673 
  303000     8661    298.05238    297.44606    -31819.65    5128.9499            0    -31819.65            0            0    71237.425    6351.4239     -26690.7    88141.308    1.0895011 
  304000     8661    302.06395   -14.701142   -31887.021    5197.9819            0   -31887.021            0            0    71219.007    6305.7955   -26689.039    88385.644    1.0864892 
  305000     8661    302.00744   -40.088372   -31929.702    5197.0094            0   -31929.702            0            0    71194.383     6282.292   -26732.693    88037.362    1.0907874 
  306000     8661    301.49916    76.180016   -31733.905    5188.2627            0   -31733.905            0            0    71439.147    6238.9668   -26545.642    88217.983    1.0885541 
  307000     8661    301.52332   -223.78368   -31931.272    5188.6786            0   -31931.272            0            0     71312.22    6170.4266   -26742.594    87410.385    1.0986114 
  308000     8661    304.79362    493.49715   -31936.236    5244.9545            0   -31936.236            0            0    71047.746    6432.4959   -26691.281    87804.587    1.0936792 
  309000     8661    298.68638    103.74754   -31860.281    5139.8599            0   -31860.281            0            0    71257.337    6289.5137   -26720.422     87682.03    1.0952079 
  310000     8661    293.93965   -269.91418   -31737.134    5058.1772            0   -31737.134            0            0    71602.435    6072.3989   -26678.956    87650.813    1.0955979 
  311000     8661    299.05349    428.54373   -31813.055    5146.1773            0   -31813.055            0            0    71200.252    6398.4025   -26666.878    87716.678    1.0947753 
  312000     8661    300.95334    178.72581   -31796.021    5178.8702            0   -31796.021            0            0    71283.394    6326.8042   -26617.151    88427.267    1.0859778 
  313000     8661    298.78506   -45.600272   -31666.521     5141.558            0   -31666.521            0            0    71562.507    6179.7184   -26524.963     88421.43    1.0860495 
  314000     8661    291.60211    22.466231   -31946.596    5017.9522            0   -31946.596            0            0    71160.201    6302.3141   -26928.644    87769.317    1.0941187 
  315000     8661    302.37014    335.62283   -31864.789    5203.2508            0   -31864.789            0            0    71117.586    6428.7961   -26661.538    88230.194    1.0884035 
  316000     8661    301.19941   -99.448086   -31897.442    5183.1047            0   -31897.442            0            0    71271.857    6238.7501   -26714.338    88140.675    1.0895089 
  317000     8661    304.99412    140.36906   -31870.708    5248.4048            0   -31870.708            0            0    71238.577    6300.6831   -26622.304    87786.907    1.0938994 
  318000     8661    299.78831    175.01888   -31950.698    5158.8221            0   -31950.698            0            0    71087.969    6372.5967   -26791.876    88015.398    1.0910596 
  319000     8661    304.54261    383.44692   -31810.194    5240.6352            0   -31810.194            0            0    71210.985    6387.3764   -26569.559    88232.036    1.0883807 
  320000     8661    303.92547    196.67829   -31879.493    5230.0152            0   -31879.493            0            0    71115.449    6415.8819   -26649.478    88828.181    1.0810764 
  321000     8661    303.57743    328.31068   -31926.583    5224.0261            0   -31926.583            0            0    71050.093    6434.9718   -26702.557    88304.737    1.0874847 
  322000     8661    300.03644    369.68684   -31695.657     5163.092            0   -31695.657            0            0    71375.933    6336.1223   -26532.565    88083.727    1.0902133 
  323000     8661    298.14059    88.876989   -31771.455    5130.4677            0   -31771.455            0            0    71326.509    6310.0752   -26640.988    89153.888    1.0771269 
  324000     8661    304.12855    183.67009   -31895.682      5233.51            0   -31895.682            0            0     71136.37    6377.2314   -26662.172    88739.923    1.0821516 
  325000     8661    309.75086   -306.88599   -31926.972    5330.2599            0   -31926.972            0            0    71345.957    6141.4213   -26596.712    88413.987    1.0861409 
  326000     8661     303.6085   -220.45414   -31924.903    5224.5607            0   -31924.903            0            0    71245.447    6242.4901   -26700.342    88895.524    1.0802574 
  327000     8661    304.44503   -109.02678    -31801.29     5238.956            0    -31801.29            0            0    71309.156    6296.1283   -26562.334    89247.214    1.0760005 
  328000     8661    300.52756   -494.83873   -31715.523    5171.5433            0   -31715.523            0            0    71628.399    6064.5698    -26543.98    89182.376    1.0767828 
  329000     8661    303.70168   -562.58103   -31780.811    5226.1643            0   -31780.811            0            0    71572.626    6054.7685   -26554.646    88991.824    1.0790884 
  330000     8661    306.58517   -154.86098   -31784.973     5275.784            0   -31784.973            0            0    71483.727    6140.2875   -26509.189    88016.803    1.0910422 
  331000     8661    299.82184   -442.35148   -31762.415    5159.3992            0   -31762.415            0            0    71592.052    6061.2785   -26603.016    88568.487    1.0842462 
  332000     8661    300.52705   -7.5821234   -31869.941    5171.5345            0   -31869.941            0            0    71253.372     6290.072   -26698.407    88505.492     1.085018 
  333000     8661    298.98201    244.72804   -31898.016    5144.9472            0   -31898.016            0            0    71094.304    6415.5809   -26753.068    88446.653    1.0857398 
  334000     8661    304.94658   -260.05443   -31881.079    5247.5867            0   -31881.079            0            0    71319.928    6207.4566   -26633.492    88528.743     1.084733 
  335000     8661    302.21453   -172.02602   -31949.069    5200.5731            0   -31949.069            0            0    71248.957    6211.8858   -26748.496    87779.478     1.093992 
  336000     8661    304.61411   -6.6208302   -31852.735    5241.8655            0   -31852.735            0            0    71298.155     6258.147   -26610.869    88003.573    1.0912062 
  337000     8661    298.72864    145.90579   -32033.928     5140.587            0   -32033.928            0            0     70982.15    6389.3112   -26893.341    87790.134    1.0938592 
  338000     8661    299.58808    30.972677     -31933.4    5155.3765            0     -31933.4            0            0    71200.814    6280.3332   -26778.024    88366.983    1.0867186 
  339000     8661    298.05014   -148.68377   -32086.831    5128.9112            0   -32086.831            0            0    71041.753     6284.115    -26957.92    88022.078    1.0909768 
  340000     8661    295.36908   -450.41057   -31867.501     5082.775            0   -31867.501            0            0    71386.514    6159.2681   -26784.726    89040.874     1.078494 
  341000     8661    300.48605    197.59307   -31747.382     5170.829            0   -31747.382            0            0      71363.7    6301.7688   -26576.553    88475.092    1.0853908 
  342000     8661    297.82922   -67.611315   -31884.031    5125.1097            0   -31884.031            0            0    71217.228    6305.3946   -26758.921    88813.805    1.0812514 
  343000     8661     297.4454   -150.44233   -31954.168    5118.5049            0   -31954.168            0            0    71227.957    6223.9515   -26835.663     88185.48    1.0889553 
  344000     8661    301.27142   -97.829346   -31829.364    5184.3438            0   -31829.364            0            0    71356.097    6220.5396    -26645.02      88440.7    1.0858128 
  345000     8661    295.56396   -28.067034   -31695.612    5086.1286            0   -31695.612            0            0     71469.37    6243.3549   -26609.483    88673.129    1.0829667 
  346000     8661     303.2273    4.4907957   -31883.921     5218.001            0   -31883.921            0            0    71282.064    6246.3837    -26665.92    87828.456    1.0933819 
  347000     8661    300.77043     192.4286   -31688.277    5175.7226            0   -31688.277            0            0    71462.694    6252.6939   -26512.555     88161.39    1.0892529 
  348000     8661     299.4884   -19.890112   -31881.767    5153.6611            0   -31881.767            0            0    71254.399    6274.8674   -26728.106    88468.102    1.0854765 
  349000     8661     300.1512    157.54413   -31794.335    5165.0669            0   -31794.335            0            0    71333.833    6281.6064   -26629.268    87982.341    1.0914696 
  350000     8661    298.11625    482.46572   -31618.499    5130.0489            0   -31618.499            0            0    71468.134    6327.1249    -26488.45    88147.171    1.0894286 
  351000     8661    297.63982    16.325905   -31792.629    5121.8504            0   -31792.629            0            0    71367.349    6248.6218   -26670.779    88262.822    1.0880011 
  352000     8661    294.91239   -191.57457   -31972.676    5074.9163            0   -31972.676            0            0    71127.154     6309.839    -26897.76    89025.554    1.0786796 
  353000     8661    300.93942   -369.60944   -32023.952    5178.6307            0   -32023.952            0            0    71167.358    6218.4405   -26845.322    88783.224    1.0816238 
  354000     8661    301.42116    31.954417   -31872.116    5186.9205            0   -31872.116            0            0    71277.397    6263.2177   -26685.195    87866.935    1.0929031 
  355000     8661    301.06935    135.11869   -31849.466    5180.8665            0   -31849.466            0            0     71278.82    6281.8904   -26668.599    87785.503    1.0939169 
  356000     8661     292.8394   -340.09292   -31867.152    5039.2438            0   -31867.152            0            0    71383.479    6157.1794   -26827.908     88481.97    1.0853064 
  357000     8661    305.10391   -39.327353   -31821.303     5250.294            0   -31821.303            0            0    71341.042    6253.1177   -26571.009    88471.609    1.0854335 
  358000     8661    303.90541    35.816203   -31653.651    5229.6701            0   -31653.651            0            0    71559.132    6197.0571   -26423.981    88401.749    1.0862913 
  359000     8661    301.18721   -271.38244   -31762.504    5182.8948            0   -31762.504            0            0    71518.027    6130.1766   -26579.609    88741.479    1.0821326 
  360000     8661    303.66278    197.25381    -31721.98    5225.4949            0    -31721.98            0            0    71379.491    6310.4187   -26496.485     88513.31    1.0849221 
  361000     8661    296.86289   -91.677543   -31892.229    5108.4808            0   -31892.229            0            0    71244.346    6273.8733   -26783.748    88550.671    1.0844644 
  362000     8661    300.05751   -161.39902   -31824.162    5163.4545            0   -31824.162            0            0    71391.091    6195.9172   -26660.707    88407.542    1.0862201 
  363000     8661     301.9427   -376.77777   -31734.345    5195.8954            0   -31734.345            0            0    71565.594    6116.3349    -26538.45    89045.279    1.0784406 
  364000     8661    298.94012    -551.9738   -31838.403    5144.2263            0   -31838.403            0            0    71523.258    6048.8395   -26694.176    88102.047    1.0899866 
  365000     8661    297.17365   -67.233691     -31900.9    5113.8284            0     -31900.9            0            0    71244.158    6269.3628   -26787.072    88346.477    1.0869709 
  366000     8661    302.92102    219.15406   -31740.009    5212.7304            0   -31740.009            0            0    71348.592    6321.7383   -26527.278    88538.351    1.0846153 
  367000     8661    305.39055    598.36187   -31854.433    5255.2267            0   -31854.433            0            0    71142.073     6415.406   -26599.206    87488.421    1.0976315 
  368000     8661    299.12925   -97.191954   -31859.786    5147.4808            0   -31859.786            0            0    71297.225    6253.6108   -26712.305    88736.916    1.0821883 
  369000     8661    299.80263     6.528636   -31897.906    5159.0685            0   -31897.906            0            0    71202.609    6312.0615   -26738.838    88766.902    1.0818227 
  370000     8661    298.08737    139.46677   -31839.756     5129.552            0   -31839.756            0            0    71237.679    6335.7409   -26710.204    88327.383    1.0872059 
  371000     8661     299.4714   -206.64689   -32044.758    5153.3687            0   -32044.758            0            0    71103.142    6255.1802   -26891.389    88261.246    1.0880205 
  372000     8661    291.03028   -66.976467   -31822.497     5008.112            0   -31822.497            0            0    71384.656     6205.378   -26814.385    87984.406     1.091444 
  373000     8661     299.1878   -281.80586   -31901.764    5148.4884            0   -31901.764            0            0    71325.433    6182.0574   -26753.276    88465.342    1.0855104 
  374000     8661    296.47887   -269.43992   -31801.846    5101.8726            0   -31801.846            0            0    71463.512    6146.7667   -26699.974    87773.794    1.0940629 
  375000     8661    294.86027   -407.01944    -31801.34    5074.0194            0    -31801.34            0            0    71485.833    6121.4849   -26727.321    88574.039    1.0841783 
  376000     8661    299.60105   -182.70711   -31793.406    5155.5998            0   -31793.406            0            0    71375.215    6242.9106   -26637.806    88939.573    1.0797224 
  377000     8661    304.01964    111.50229   -31874.656    5231.6357            0   -31874.656            0            0    71186.668    6349.2663    -26643.02    88341.384    1.0870335 
  378000     8661    304.36131    61.877324   -31809.608    5237.5152            0   -31809.608            0            0    71269.966    6328.1459   -26572.093    88961.235    1.0794595 
  379000     8661    301.20971      366.407   -31929.114    5183.2818            0   -31929.114            0            0    71029.444    6451.7535   -26745.832    88608.352    1.0837584 
  380000     8661    297.83282    126.16715   -31898.752    5125.1716            0   -31898.752            0            0    71213.249    6300.3055    -26773.58    87920.433    1.0922381 
  381000     8661    300.36681   -91.231941   -31900.493    5168.7771            0   -31900.493            0            0    71284.154     6224.124   -26731.715    87956.199     1.091794 
  382000     8661    300.64706   -71.441182   -31866.893    5173.5998            0   -31866.893            0            0    71302.379    6241.6579   -26693.293     88119.89    1.0897659 
  383000     8661    300.17517   -215.61874   -31852.787    5165.4792            0   -31852.787            0            0    71370.789    6188.9232   -26687.307    88345.427    1.0869838 
  384000     8661    301.78021    205.85703   -31914.815    5193.0992            0   -31914.815            0            0    71117.842    6376.1769   -26721.716     88134.69    1.0895829 
  385000     8661     304.0192    226.88526   -31920.995    5231.6282            0   -31920.995            0            0     71143.96    6344.9115   -26689.367    87941.415    1.0919775 
  386000     8661    297.37471      69.8934   -31855.447    5117.2884            0   -31855.447            0            0    71253.714     6298.249   -26738.158     88198.31    1.0887969 
  387000     8661    306.95287   -121.39004   -31840.188    5282.1114            0   -31840.188            0            0    71426.112    6142.4987   -26558.076    87739.807    1.0944867 
  388000     8661    298.79565       219.71    -31789.65    5141.7403            0    -31789.65            0            0    71277.428    6342.1745   -26647.909    88120.029    1.0897641 
  389000     8661    296.97966    256.38634   -31958.692    5110.4903            0   -31958.692            0            0    71030.504    6419.4771   -26848.202    88082.778     1.090225 
  390000     8661      297.605   -404.53196   -31816.558    5121.2512            0   -31816.558            0            0    71506.104    6090.5435   -26695.307    88406.617    1.0862315 
  391000     8661    301.02583    138.98896   -31812.912    5180.1176            0   -31812.912            0            0    71276.813    6319.8652   -26632.794    88435.782    1.0858732 
  392000     8661    305.81788    300.40045   -31832.538    5262.5802            0   -31832.538            0            0    71208.125     6373.782   -26569.958    88227.485    1.0884369 
  393000     8661     300.8461    139.31138   -31839.431    5177.0248            0   -31839.431            0            0    71218.854    6354.2528   -26662.406    88984.286    1.0791799 
  394000     8661    301.94945    229.88499   -31793.361    5196.0115            0   -31793.361            0            0    71273.111    6344.0846    -26597.35    88491.294     1.085192 
  395000     8661    300.09881   -341.57835   -31922.759    5164.1653            0   -31922.759            0            0    71315.626    6175.3672   -26758.594    88454.128     1.085648 
  396000     8661    304.62285   -649.76546   -31793.244     5242.016            0   -31793.244            0            0    71642.293    5977.0215   -26551.228    88528.651    1.0847341 
  397000     8661    298.71935   -32.193025   -31788.345    5140.4272            0   -31788.345            0            0     71373.44    6248.3927   -26647.918    88574.783    1.0841692 
  398000     8661    297.64577   -86.078824   -31796.325    5121.9529            0   -31796.325            0            0     71387.72    6226.5408   -26674.373    88744.611    1.0820944 
  399000     8661    298.28505   -227.04008     -31990.2    5132.9536            0     -31990.2            0            0    71193.705    6233.6294   -26857.246    88130.636     1.089633 
  400000     8661    299.69799    -211.3012   -31838.709    5157.2678            0   -31838.709            0            0    71390.034    6184.7306   -26681.441    88345.399    1.0869841 
  401000     8661    305.68855    490.42611   -31795.897    5260.3547            0   -31795.897            0            0    71117.865      6492.22   -26535.543    88433.284    1.0859039 
  402000     8661     299.4294    101.57331   -31792.002    5152.6459            0   -31792.002            0            0     71379.42    6241.2686   -26639.356    87694.407    1.0950533 
  403000     8661    295.05316   -96.312355   -31876.006    5077.3386            0   -31876.006            0            0    71253.071    6280.7588   -26798.667    88624.595    1.0835598 
  404000     8661    295.57759   -121.67194   -31788.429    5086.3632            0   -31788.429            0            0    71388.083    6230.9612   -26702.065    88889.382    1.0803321 
  405000     8661    297.21919    51.757308   -32010.175    5114.6121            0   -32010.175            0            0    71005.218    6397.1019   -26895.563    88548.453    1.0844915 
  406000     8661    293.87249   -85.298664   -31779.058    5057.0213            0   -31779.058            0            0    71380.091    6250.7457   -26722.037    88528.819    1.0847321 
  407000     8661    300.42116   -198.54729   -31720.582    5169.7124            0   -31720.582            0            0    71502.162    6186.8541   -26550.869    88744.516    1.0820956 
  408000     8661    299.62484    243.04651   -31873.832     5156.009            0   -31873.832            0            0    71219.175    6317.4777   -26717.823    87541.218    1.0969695 
  409000     8661    305.12356   -84.297361   -31854.317    5250.6323            0   -31854.317            0            0    71294.613    6256.5167   -26603.685     88492.58    1.0851763 
  410000     8661    296.84678    359.20208   -31734.341    5108.2036            0   -31734.341            0            0    71277.827     6393.949   -26626.137     88829.09    1.0810653 
  411000     8661     297.3671   -77.738394    -31966.06    5117.1575            0    -31966.06            0            0    71120.467    6326.1494   -26848.903    88498.503    1.0851036 
  412000     8661    301.83328    -191.0651   -31867.956    5194.0124            0   -31867.956            0            0    71293.146    6243.9443   -26673.944    89090.469    1.0778936 
  413000     8661    302.33502      31.1045   -31697.052    5202.6464            0   -31697.052            0            0     71511.98    6206.5159   -26494.406    88319.274    1.0873057 
  414000     8661    300.49581   -69.188945   -31771.826    5170.9969            0   -31771.826            0            0    71406.369     6234.853   -26600.829    88919.249    1.0799692 
  415000     8661    290.12288     235.8284   -31826.312    4992.4974            0   -31826.312            0            0    71220.143    6362.8201   -26833.815    88240.355    1.0882781 
  416000     8661    294.81598    406.63115   -31848.567    5073.2572            0   -31848.567            0            0    71140.992    6423.8889    -26775.31    88239.935    1.0882833 
  417000     8661       295.85    236.78185   -31912.657    5091.0509            0   -31912.657            0            0    71114.987    6385.7041   -26821.606    88213.143    1.0886138 
  418000     8661    300.85699   -61.466513   -32053.075    5177.2121            0   -32053.075            0            0    71071.274    6285.9372   -26875.863    88029.615    1.0908834 
  419000     8661    297.04216    14.291667   -31761.502    5111.5658            0   -31761.502            0            0    71365.884     6280.939   -26649.936    88445.508    1.0857538 
  420000     8661    298.24244   -71.645257   -31811.983    5132.2205            0   -31811.983            0            0    71386.863    6209.4782   -26679.763    88056.384    1.0905518 
  421000     8661    303.31892    -254.3062   -31814.122    5219.5776            0   -31814.122            0            0    71492.743     6104.409   -26594.544    87713.475    1.0948152 
  422000     8661    298.22645   -313.88699   -31882.389    5131.9454            0   -31882.389            0            0    71353.893    6174.6345   -26750.443    88376.332    1.0866037 
  423000     8661    301.17647    20.559117   -31900.808    5182.7098            0   -31900.808            0            0     71223.99    6289.3133   -26718.098    88537.001    1.0846318 
  424000     8661     295.9639   -30.767594   -31962.399    5093.0108            0   -31962.399            0            0    71177.594    6267.7961   -26869.388    87567.015    1.0966464 
  425000     8661    300.79108    501.04194   -31996.121     5176.078            0   -31996.121            0            0    70965.199    6450.7105   -26820.043    87198.655     1.101279 
  426000     8661    301.08344    147.94653   -31882.958    5181.1089            0   -31882.958            0            0    71208.222    6314.5665   -26701.849    87874.136    1.0928136 
  427000     8661      301.972    164.12778   -32040.235    5196.3995            0   -32040.235            0            0    70959.237    6411.6727   -26843.835    88256.749     1.088076 
  428000     8661    294.62486     331.0713   -31740.255    5069.9683            0   -31740.255            0            0    71283.324    6385.7095   -26670.287     88773.76    1.0817391 
  429000     8661    303.75269    -43.50133   -31775.856    5227.0421            0   -31775.856            0            0    71397.036     6238.163   -26548.814    88426.356     1.085989 
  430000     8661     299.9056   -51.181343    -31992.33    5160.8405            0    -31992.33            0            0    71123.001    6298.7728    -26831.49    88125.925    1.0896912 
  431000     8661    300.07806   -276.59512   -31995.862    5163.8082            0   -31995.862            0            0    71191.154    6225.0337   -26832.054    88732.672      1.08224 
  432000     8661    294.50917     14.01303   -31721.877    5067.9776            0   -31721.877            0            0    71473.127    6217.8791     -26653.9    88188.689    1.0889157 
  433000     8661    304.54826    45.128932   -31897.735    5240.7323            0   -31897.735            0            0    71217.306    6292.5272   -26657.002    88220.002    1.0885292 
  434000     8661    301.34535   -564.50249   -31917.611     5185.616            0   -31917.611            0            0    71351.629    6141.9776   -26731.996    89432.972    1.0737656 
  435000     8661    301.14702      -293.51   -31965.656    5182.2031            0   -31965.656            0            0    71202.399    6238.1015   -26783.453    88792.596    1.0815096 
  436000     8661    295.23492   -584.08363   -32146.798    5080.4663            0   -32146.798            0            0    71062.377    6205.4558   -27066.332    88955.426      1.07953 
  437000     8661    303.88514    -23.00028   -31895.356    5229.3212            0   -31895.356            0            0    71234.252    6278.9258   -26666.035    88402.713    1.0862794 
  438000     8661    301.00108   -46.315905   -31747.524    5179.6917            0   -31747.524            0            0    71451.468    6213.3183   -26567.832    88194.734    1.0888411 
  439000     8661    301.18171   -53.262548   -31869.113       5182.8            0   -31869.113            0            0    71287.353    6254.7127   -26686.313    88251.665    1.0881387 
  440000     8661    301.66642    350.86836   -31879.562     5191.141            0   -31879.562            0            0    71171.689    6363.8971   -26688.421     87525.22      1.09717 
  441000     8661    303.13912   -274.46948   -31799.029    5216.4836            0   -31799.029            0            0    71468.947    6138.5332   -26582.545    88327.517    1.0872042 
  442000     8661    301.46114   -48.897285   -31926.037    5187.6085            0   -31926.037            0            0    71207.789    6275.2958   -26738.429    87887.859    1.0926429 
  443000     8661    299.48299   -405.14719   -31838.547    5153.5682            0   -31838.547            0            0    71500.412    6074.6336   -26684.978    88301.429    1.0875254 
  444000     8661     303.5231   -240.86159   -31880.076    5223.0913            0   -31880.076            0            0    71341.629    6186.7491   -26656.984     88096.94    1.0900498 
  445000     8661    303.18721   -103.35051   -31843.018    5217.3112            0   -31843.018            0            0     71364.74    6204.0761   -26625.707    87979.268    1.0915077 
  446000     8661    297.81186   -481.09442   -31879.728     5124.811            0   -31879.728            0            0    71413.155    6120.8131   -26754.917    88402.651    1.0862802 
  447000     8661    301.74557   -162.34536    -31881.57     5192.503            0    -31881.57            0            0    71316.612    6211.5331   -26689.067    88055.069    1.0905681 
  448000     8661    300.10885    405.86763   -31767.061     5164.338            0   -31767.061            0            0    71233.913    6406.0207   -26602.723    88594.702    1.0839254 
  449000     8661    304.49323   -183.80464   -31919.377    5239.7854            0   -31919.377            0            0    71274.299     6216.555   -26679.592    88587.827    1.0840095 
  450000     8661     296.5019    107.69118   -31746.498    5102.2688            0   -31746.498            0            0    71389.756    6277.6582   -26644.229    88331.198    1.0871589 
  451000     8661    295.43374     116.2451   -31941.618    5083.8877            0   -31941.618            0            0    71126.335    6345.0503   -26857.731    87930.876    1.0921084 
  452000     8661    302.05849    12.484258   -31816.386    5197.8879            0   -31816.386            0            0    71357.956    6236.7607   -26618.498    88252.154    1.0881326 
  453000     8661    299.01938    53.704355   -31900.485    5145.5902            0   -31900.485            0            0    71192.824    6318.2283   -26754.895    87863.052    1.0929514 
  454000     8661    302.68059   -196.05479   -31787.888    5208.5931            0   -31787.888            0            0    71434.682    6186.7606   -26579.295    88387.264    1.0864693 
  455000     8661    299.55031   -75.082134   -31949.573    5154.7265            0   -31949.573            0            0    71200.935    6261.1252   -26794.846    87899.218    1.0925017 
  456000     8661    296.23848    51.951142   -31846.263    5097.7359            0   -31846.263            0            0    71259.861    6305.5484   -26748.527    88459.764    1.0855788 
  457000     8661    297.95962    233.27027   -31815.856    5127.3536            0   -31815.856            0            0    71274.778    6322.3986   -26688.502    88119.208    1.0897743 
  458000     8661    299.72923    228.48957   -31882.401    5157.8055            0   -31882.401            0            0    71141.049    6388.3357   -26724.595     88503.49    1.0850425 
  459000     8661    301.36042    64.037913   -31845.163    5185.8753            0   -31845.163            0            0    71261.746    6302.4245   -26659.287     88701.94     1.082615 
  460000     8661    299.09964    563.37807   -31664.922    5146.9714            0   -31664.922            0            0    71298.282    6446.9322   -26517.951     88463.51    1.0855329 
  461000     8661     302.0104   -147.18875   -31866.969    5197.0603            0   -31866.969            0            0    71300.816    6245.2098   -26669.909    88859.623    1.0806938 
  462000     8661    299.35313    281.02631   -31893.751    5151.3335            0   -31893.751            0            0    71167.507    6350.5466   -26742.418    87539.557    1.0969903 
  463000     8661    297.98061   -61.264955   -31946.474    5127.7148            0   -31946.474            0            0    71213.218    6253.8314   -26818.759    87564.238    1.0966811 
  464000     8661    299.88704   -185.73068   -31828.143    5160.5211            0   -31828.143            0            0    71339.947    6239.9712   -26667.622    88876.801     1.080485 
  465000     8661    303.72599   -415.91577   -31874.015    5226.5826            0   -31874.015            0            0    71451.805    6087.8127   -26647.433    88284.614    1.0877325 
  466000     8661     300.1235   -133.11337    -31783.85    5164.5902            0    -31783.85            0            0    71408.393    6216.7774    -26619.26    88739.683    1.0821545 
  467000     8661    300.59459    148.03841   -31911.334    5172.6968            0   -31911.334            0            0     71155.73    6343.6403   -26738.637    87975.598    1.0915532 
  468000     8661    295.48827    380.01259   -31924.542     5084.826            0   -31924.542            0            0    71058.721    6428.6587   -26839.716    87930.597    1.0921119 
  469000     8661    301.21519    54.086203   -31850.775    5183.3761            0   -31850.775            0            0    71293.409     6268.908   -26667.399    87986.401    1.0914192 
  470000     8661    300.41185   -298.33017   -31958.837    5169.5521            0   -31958.837            0            0    71271.451    6182.9965   -26789.285     88019.17    1.0910129 
  471000     8661    297.47148   -126.07565   -31940.167    5118.9536            0   -31940.167            0            0     71224.64    6243.9266   -26821.213    87729.902    1.0946102 
  472000     8661    298.85156   -616.85162   -32031.512    5142.7023            0   -32031.512            0            0     71305.13    6073.9287   -26888.809     88053.25    1.0905906 
  473000     8661     305.6901   -229.06617   -31923.387    5260.3813            0   -31923.387            0            0    71240.962    6246.4551   -26663.006    88633.441    1.0834517 
  474000     8661    304.80749    51.110465   -31982.385    5245.1932            0   -31982.385            0            0    71091.311    6334.2213   -26737.192     87846.94    1.0931519 
  475000     8661    302.46405   -194.45691   -31878.471    5204.8668            0   -31878.471            0            0    71350.716    6184.8535   -26673.604    87927.049    1.0921559 
  476000     8661    299.44905   -193.78179   -31909.812     5152.984            0   -31909.812            0            0    71273.816     6227.673   -26756.828    88199.471    1.0887826 
  477000     8661    302.65488    323.50496    -32004.79    5208.1507            0    -32004.79            0            0    70958.598    6445.0278   -26796.639    88095.875    1.0900629 
  478000     8661    299.18637   -45.230329   -31883.773    5148.4638            0   -31883.773            0            0    71282.472    6248.1402   -26735.309    87943.809    1.0919478 
  479000     8661    293.09959   -348.94051   -31838.661    5043.7211            0   -31838.661            0            0    71500.125    6073.6565    -26794.94    87383.471    1.0989498 
  480000     8661    300.46614    138.69842   -31831.327    5170.4864            0   -31831.327            0            0    71317.943    6259.0053   -26660.841    87634.036    1.0958077 
  481000     8661     304.9817   -42.346319    -31946.57    5248.1911            0    -31946.57            0            0     71182.28    6284.1675   -26698.379    87806.628    1.0936538 
  482000     8661    295.73641   -39.982789   -31803.592    5089.0962            0   -31803.592            0            0    71350.661     6262.166   -26714.495    88206.417    1.0886968 
  483000     8661    299.31457    198.92937   -31821.701    5150.6699            0   -31821.701            0            0    71233.666    6356.1333   -26671.031     88273.99    1.0878635 
  484000     8661    305.01576   -126.24461   -31929.287    5248.7773            0   -31929.287            0            0    71235.038     6248.818    -26680.51    88054.946    1.0905696 
  485000     8661    299.28643   -121.22101   -31866.534    5150.1857            0   -31866.534            0            0    71290.325    6253.4736   -26716.348    88276.865     1.087828 
  486000     8661     295.5714   -159.44497   -31852.777    5086.2566            0   -31852.777            0            0    71373.145    6185.6453   -26766.521    87975.478    1.0915547 
  487000     8661    300.99603    222.14724   -31830.499    5179.6048            0   -31830.499            0            0    71254.391    6325.4692   -26650.895    87968.864    1.0916368 
  488000     8661    301.99645   -152.00287   -31932.998    5196.8203            0   -31932.998            0            0    71247.468    6233.6225   -26736.178    88097.209    1.0900464 
  489000     8661    303.48638    332.50334   -31887.857    5222.4594            0   -31887.857            0            0     71164.06     6357.413   -26665.398    87394.153    1.0988155 
  490000     8661     303.0664    199.44418   -31788.297    5215.2322            0   -31788.297            0            0     71265.44    6357.0654   -26573.065    88490.491    1.0852019 
  491000     8661    296.30049    352.65743   -31910.367    5098.8029            0   -31910.367            0            0    71100.107    6403.2787   -26811.565    87764.416    1.0941798 
  492000     8661    299.74114    168.63472   -31869.338    5158.0104            0   -31869.338            0            0    71246.847    6291.6951   -26711.327    87344.739    1.0994371 
  493000     8661    303.06631    321.22016   -31868.713    5215.2307            0   -31868.713            0            0    71113.419    6428.7402   -26653.482    88540.053    1.0845944 
  494000     8661     295.5664   -207.08727    -32016.67    5086.1705            0    -32016.67            0            0    71125.132    6265.8986     -26930.5    87975.161    1.0915587 
  495000     8661      299.574   -312.96725    -31889.51    5155.1343            0    -31889.51            0            0    71345.218    6173.6932   -26734.376    88360.036    1.0868041 
  496000     8661    304.35664   -358.59387   -31870.438    5237.4349            0   -31870.438            0            0    71376.533    6161.9374   -26633.004    88450.451    1.0856931 
  497000     8661    298.97941    389.02461   -31693.444    5144.9024            0   -31693.444            0            0    71387.233    6332.3938   -26548.541    88180.291    1.0890194 
  498000     8661    297.25731    -100.9605    -31818.55     5115.268            0    -31818.55            0            0    71387.412    6204.5239   -26703.282    87909.135    1.0923785 
  499000     8661    298.50363    162.29832    -31870.79     5136.715            0    -31870.79            0            0    71179.034    6364.5486   -26734.075    88395.531    1.0863677 
  500000     8661    300.27631    293.84499   -31836.049    5167.2197            0   -31836.049            0            0    71212.822    6362.1879   -26668.829    87912.637     1.092335 
  501000     8661    300.31037    240.06349   -31885.603    5167.8058            0   -31885.603            0            0    71161.221     6365.156   -26717.797    87976.642    1.0915403 
  502000     8661    296.74066    227.86615   -32002.075    5106.3775            0   -32002.075            0            0    70982.571     6426.935   -26895.698    88051.149    1.0906166 
  503000     8661    296.77167   -272.32147   -31965.037    5106.9111            0   -31965.037            0            0    71232.471    6209.2015   -26858.126    88025.157    1.0909387 
  504000     8661    298.57267   -274.76195   -31887.317    5137.9031            0   -31887.317            0            0    71342.858    6181.5374   -26749.414    88191.809    1.0888772 
  505000     8661    297.24996   -276.17601   -31777.634    5115.1416            0   -31777.634            0            0    71430.968    6205.4044   -26662.493     88993.08    1.0790732 
  506000     8661    299.16954   -204.52166   -31929.933    5148.1741            0   -31929.933            0            0    71263.562    6216.8891   -26781.759    88058.984    1.0905196 
  507000     8661    296.12765   -129.26113   -31762.444    5095.8287            0   -31762.444            0            0    71457.535    6189.9074   -26666.616    88355.264    1.0868628 
  508000     8661    304.06111   -12.893528   -31809.437    5232.3494            0   -31809.437            0            0    71386.116    6218.5034   -26577.088    87960.359    1.0917423 
  509000     8661    296.91421    262.10486   -31876.495     5109.364            0   -31876.495            0            0    71167.631    6370.2255   -26767.131    87923.508    1.0921999 
  510000     8661    292.81801    198.42327   -31860.134    5038.8757            0   -31860.134            0            0    71154.338    6397.2135   -26821.258    88466.086    1.0855013 
  511000     8661     303.0197    113.54664   -31711.449    5214.4285            0   -31711.449            0            0    71424.541    6271.8325    -26497.02    88318.818    1.0873113 
  512000     8661    307.27941    94.175725   -31851.841    5287.7306            0   -31851.841            0            0    71280.484    6278.3886    -26564.11    87804.677    1.0936781 
  513000     8661    298.51629    5.5362907   -31865.728     5136.933            0   -31865.728            0            0     71291.82    6251.7647   -26728.795    87471.494    1.0978439 
  514000     8661    303.29513     338.5204   -31817.544    5219.1683            0   -31817.544            0            0    71212.353    6376.8575   -26598.376    88214.549    1.0885965 
  515000     8661    299.51054   -89.066574   -31880.426    5154.0422            0   -31880.426            0            0    71278.879    6250.7754   -26726.384    88627.457    1.0835248 
  516000     8661    301.08944   -132.56723   -31975.007    5181.2123            0   -31975.007            0            0    71170.774    6266.7915   -26793.794    88109.905    1.0898894 
  517000     8661    297.00494    163.04616   -31836.206    5110.9253            0   -31836.206            0            0    71289.094    6286.1335    -26725.28     87812.35    1.0935825 
  518000     8661    297.87009   -164.94993   -31711.384     5125.813            0   -31711.384            0            0    71519.686    6175.8013   -26585.571    88542.381    1.0845659 
  519000     8661    296.73541   -167.95254   -31954.762    5106.2872            0   -31954.762            0            0    71215.829    6239.2312   -26848.475    87977.254    1.0915327 
  520000     8661    301.56404   -530.90781   -31998.011    5189.3792            0   -31998.011            0            0    71283.577     6127.568   -26808.632     88379.31    1.0865671 
  521000     8661    299.45606   -501.80682   -31879.694    5153.1047            0   -31879.694            0            0    71449.585     6080.071   -26726.589    88377.065    1.0865947 
  522000     8661    297.69662   -96.274051    -31678.75    5122.8278            0    -31678.75            0            0    71534.854    6194.6811   -26555.923     88545.37    1.0845293 
  523000     8661    300.53007    120.14718   -31809.942    5171.5865            0   -31809.942            0            0    71322.504    6280.8653   -26638.355    88164.424    1.0892154 
  524000     8661    299.90713   -65.771326   -31849.798    5160.8668            0   -31849.798            0            0    71291.108    6274.4936   -26688.932    89236.337    1.0761317 
  525000     8661    299.50232   -26.980936   -31749.914    5153.9007            0   -31749.914            0            0      71401.5    6257.8986   -26596.013    88828.508    1.0810724 
  526000     8661    298.54381    53.636842    -31968.73    5137.4065            0    -31968.73            0            0    71087.013    6352.9105   -26831.324    88337.309    1.0870837 
  527000     8661    298.97333    270.18075   -31912.728    5144.7978            0   -31912.728            0            0    71145.619     6352.218    -26767.93    87591.178    1.0963438 
  528000     8661    300.71229    8.2934699   -31713.243    5174.7221            0   -31713.243            0            0    71540.009    6154.4962    -26538.52    87728.986    1.0946217 
  529000     8661    299.09727    856.14744   -31885.265    5146.9305            0   -31885.265            0            0    70957.529    6564.4169   -26738.335    87589.812    1.0963609 
  530000     8661    300.26057   -71.802273   -31840.855    5166.9488            0   -31840.855            0            0    71316.417    6252.9099   -26673.906     88645.11     1.083309 
  531000     8661    296.56995    60.212351   -31975.388    5103.4399            0   -31975.388            0            0     71115.95    6320.0515   -26871.948    87947.198    1.0919057 
  532000     8661    299.57203    190.04896   -31818.869    5155.1003            0   -31818.869            0            0    71186.371    6396.9168   -26663.769    88911.574    1.0800624 
  533000     8661    298.31799    418.93706   -31878.144    5133.5205            0   -31878.144            0            0     71114.19    6412.0085   -26744.624    87744.015    1.0944342 
  534000     8661    307.13786    117.97324   -31870.243    5285.2947            0   -31870.243            0            0    71241.795    6300.1878   -26584.949    88188.223    1.0889215 
  535000     8661     299.1915   -15.569117   -31919.848    5148.5521            0   -31919.848            0            0    71225.641    6270.1097   -26771.296    88285.737    1.0877187 
  536000     8661    296.10963   -156.79385   -31770.178    5095.5186            0   -31770.178            0            0    71449.322     6190.448   -26674.659    88431.781    1.0859224 
  537000     8661    305.47586   -140.62307   -31688.473    5256.6948            0   -31688.473            0            0    71575.443      6147.84   -26431.779    88357.176    1.0868393 
  538000     8661    293.13439    -86.81724   -31805.882      5044.32            0   -31805.882            0            0    71334.625    6271.8941   -26761.562    89141.058    1.0772819 
  539000     8661    295.50548     117.8984   -31820.425    5085.1223            0   -31820.425            0            0    71213.231     6375.668   -26735.302    89018.465    1.0787655 
  540000     8661    306.92136    309.81412   -31890.555    5281.5692            0   -31890.555            0            0    71126.128    6395.4585   -26608.985     88010.93     1.091115 
  541000     8661    301.94844    128.24307   -31965.549    5195.9941            0   -31965.549            0            0    71084.877      6362.98   -26769.555    88269.129    1.0879234 
  542000     8661    297.37998   -389.78605   -31739.514    5117.3791            0   -31739.514            0            0    71605.741    6064.0653   -26622.135    88283.168    1.0877504 
  543000     8661    298.67265      118.956   -31777.621    5139.6236            0   -31777.621            0            0    71380.433    6251.7262   -26637.997    88056.898    1.0905454 
  544000     8661    299.74353   -147.67793   -31817.095    5158.0515            0   -31817.095            0            0    71415.438    6180.5231   -26659.044    87962.591    1.0917146 
  545000     8661    296.84935   -435.63503   -31867.974    5108.2478            0   -31867.974            0            0    71435.677    6112.9949   -26759.727    88519.287    1.0848489 
  546000     8661    301.60828    106.40275   -31859.087    5190.1405            0   -31859.087            0            0    71229.379    6319.5831   -26668.946    88349.224    1.0869371 
  547000     8661    299.24244    22.975804   -31891.596    5149.4287            0   -31891.596            0            0    71193.698    6325.9676   -26742.167    88444.052    1.0857717 
  548000     8661    303.04393   -49.645987   -31781.214    5214.8456            0   -31781.214            0            0    71466.404    6167.2482   -26566.368    87942.761    1.0919608 
  549000     8661     301.6657   -7.7586422   -31767.923    5191.1287            0   -31767.923            0            0    71417.016      6223.53   -26576.794    88094.416     1.090081 
  550000     8661    294.45471   -165.51635   -31786.975    5067.0404            0   -31786.975            0            0    71423.299     6202.752   -26719.935    88450.556    1.0856919 
  551000     8661    300.47966   -317.90513   -31889.852    5170.7189            0   -31889.852            0            0    71319.465    6200.3778   -26719.134    88829.939     1.081055 
  552000     8661    299.44563   -14.899111   -31877.455    5152.9253            0   -31877.455            0            0     71209.98    6322.3282    -26724.53    88568.875    1.0842415 
  553000     8661    299.44827   -39.838204   -31884.817    5152.9707            0   -31884.817            0            0    71230.456    6296.4809   -26731.847     88506.59    1.0850045 
  554000     8661    308.10556    52.111037   -31796.973    5301.9471            0   -31796.973            0            0    71360.446    6252.8133   -26495.026    88577.752    1.0841328 
  555000     8661    301.91822   -156.44819   -31987.353    5195.4741            0   -31987.353            0            0    71105.318    6320.5223   -26791.879    88953.495    1.0795534 
  556000     8661    300.10861   -41.808456    -31842.95    5164.3338            0    -31842.95            0            0    71260.034    6306.8109   -26678.616    88917.465    1.0799908 
  557000     8661    298.39868   -37.623975   -31835.601    5134.9091            0   -31835.601            0            0    71336.669    6238.5757   -26700.692    88395.061    1.0863735 
  558000     8661    299.36284    36.992418   -31832.899    5151.5005            0   -31832.899            0            0    71349.569    6224.2057   -26681.398    87658.254    1.0955049 
  559000     8661     300.4059    71.128644   -31875.728    5169.4497            0   -31875.728            0            0    71287.851    6246.0801   -26706.278    87348.814    1.0993858 
  560000     8661    299.59638    180.95278   -31871.705    5155.5193            0   -31871.705            0            0    71231.987    6312.9144   -26716.185     87883.67     1.092695 
  561000     8661     309.0512   -207.99327   -31781.728    5318.2199            0   -31781.728            0            0    71491.045    6134.0545   -26463.508    88084.571    1.0902028 
  562000     8661    302.08308     -315.644   -31846.645     5198.311            0   -31846.645            0            0     71406.32    6160.5117   -26648.334    88401.418    1.0862953 
  563000     8661    307.85818   -40.212587   -31929.901    5297.6901            0   -31929.901            0            0    71228.832    6250.4239   -26632.211    87926.139    1.0921672 
  564000     8661     304.9354    690.94228   -31949.529    5247.3943            0   -31949.529            0            0    70976.673    6488.3384   -26702.135    87026.574    1.1034566 
  565000     8661     298.7648   -131.78814   -31821.866    5141.2094            0   -31821.866            0            0    71374.599    6212.1488   -26680.657    88543.801    1.0845485 
  566000     8661    301.60489    59.613391   -31899.007    5190.0821            0   -31899.007            0            0    71183.956    6326.7518   -26708.925    88582.796    1.0840711 
  567000     8661    298.46209    141.90681   -31938.551    5136.0002            0   -31938.551            0            0    71071.384    6397.1731   -26802.551    88656.727    1.0831671 
  568000     8661    295.03587    261.87737   -31934.602    5077.0411            0   -31934.602            0            0    71061.948    6411.5211   -26857.561    88131.963    1.0896166 
  569000     8661    304.81525   -162.11727   -31844.907    5245.3268            0   -31844.907            0            0    71381.484    6181.0164    -26599.58    87958.371     1.091767 
  570000     8661    301.30199    316.44562   -31839.303    5184.8698            0   -31839.303            0            0    71223.666    6348.6763   -26654.434    87624.946    1.0959213 
  571000     8661    304.34373    212.88401   -31793.765    5237.2128            0   -31793.765            0            0    71308.541    6307.2539   -26556.552    88297.021    1.0875797 
  572000     8661    300.40325    517.26726    -31719.89    5169.4042            0    -31719.89            0            0     71297.11    6389.0312   -26550.486     87995.86    1.0913019 
  573000     8661    299.59634    52.507181   -31777.337    5155.5187            0   -31777.337            0            0    71377.652    6255.8913   -26621.819    88211.678    1.0886319 
  574000     8661     298.4051    9.6325947   -31983.058    5135.0196            0   -31983.058            0            0    71109.781    6321.9942   -26848.039    87951.167    1.0918564 
  575000     8661    298.92849    61.387946    -31905.23    5144.0262            0    -31905.23            0            0    71199.858    6310.3898   -26761.204    88139.445    1.0895241 
  576000     8661    300.83352    114.97623   -31742.098    5176.8083            0   -31742.098            0            0    71419.884    6249.4858    -26565.29    87994.339    1.0913208 
  577000     8661    295.26331   -122.16315   -31807.916    5080.9549            0   -31807.916            0            0    71404.354    6196.2613   -26726.961    88042.271    1.0907266 
  578000     8661    297.69426   -354.14305   -31822.805    5122.7872            0   -31822.805            0            0    71459.916    6127.6648   -26700.018    88299.395    1.0875505 
  579000     8661    301.61812    404.00942   -31667.136    5190.3099            0   -31667.136            0            0    71374.278    6365.8597   -26476.826    88592.858     1.083948 
  580000     8661     292.9726   -271.06048   -31706.315    5041.5359            0   -31706.315            0            0    71557.677    6143.7682   -26664.779    88664.358    1.0830739 
  581000     8661    296.79439   -148.34339   -31665.568     5107.302            0   -31665.568            0            0    71606.402    6138.6556   -26558.266     88189.45    1.0889063 
  582000     8661    297.32332   -310.78141   -31918.054     5116.404            0   -31918.054            0            0    71322.552    6171.4942    -26801.65     87864.41    1.0929345 
  583000     8661    301.21526    455.57978   -31876.561    5183.3774            0   -31876.561            0            0    71123.698    6408.1933   -26693.184    87514.697     1.097302 
  584000     8661    300.66753    385.56211   -31756.492    5173.9519            0   -31756.492            0            0     71288.81    6365.5132    -26582.54    88103.677    1.0899664 
  585000     8661    298.82193    111.58897   -31795.765    5142.1924            0   -31795.765            0            0    71307.478     6308.003   -26653.573    88316.315    1.0873421 
  586000     8661    298.23261   -11.555572   -31810.891    5132.0513            0   -31810.891            0            0    71350.192    6247.0541   -26678.839    88331.464    1.0871556 
  587000     8661    299.43674   -13.065328   -31811.757    5152.7722            0   -31811.757            0            0    71301.518    6297.9629   -26658.985    88838.686    1.0809485 
  588000     8661    303.68301    333.68949   -31868.783     5225.843            0   -31868.783            0            0    71162.526    6373.1357    -26642.94    88053.497    1.0905876 
  589000     8661      296.242   -151.74127   -31616.329    5097.7964            0   -31616.329            0            0    71678.016    6119.1143   -26518.533     88565.95    1.0842773 
  590000     8661    304.79762    203.15422   -31696.374    5245.0235            0   -31696.374            0            0      71445.6    6267.0888   -26451.351    88095.921    1.0900624 
  591000     8661    304.52211    151.50909   -31899.746    5240.2824            0   -31899.746            0            0    71192.738    6319.0017   -26659.464    87958.461    1.0917659 
  592000     8661    299.53075    280.79882   -31912.705      5154.39            0   -31912.705            0            0    71074.188     6422.974   -26758.315    88265.336    1.0879701 
  593000     8661    298.70757   -346.44826   -31863.851    5140.2245            0   -31863.851            0            0    71395.579    6145.9554   -26723.626    88382.505    1.0865278 
  594000     8661    301.73556    57.028201   -31751.546    5192.3308            0   -31751.546            0            0    71392.651    6267.2428   -26559.216    88452.757    1.0856648 
  595000     8661    303.26924   -540.33146   -31876.424    5218.7228            0   -31876.424            0            0    71480.108    6050.5809   -26657.701     88087.67    1.0901645 
  596000     8661     296.8136   -16.135972   -31858.519    5107.6327            0   -31858.519            0            0    71282.405    6264.7747   -26750.886     87939.23    1.0920047 
  597000     8661    299.29435   -170.32903   -31809.743     5150.322            0   -31809.743            0            0    71411.138    6192.7215   -26659.421     88253.98    1.0881101 
  598000     8661    302.47732   -55.416615   -31856.686    5205.0952            0   -31856.686            0            0    71354.326    6204.3906   -26651.591    88036.563    1.0907973 
  599000     8661    304.14227    170.81495   -31805.811    5233.7459            0   -31805.811            0            0    71322.022    6280.9521   -26572.065    87911.783    1.0923456 
  600000     8661    300.35558    220.31629   -31877.102    5168.5838            0   -31877.102            0            0     71221.27    6307.6909   -26708.519    87679.582    1.0952384 
  601000     8661    297.86503    414.64281   -31744.945     5125.726            0   -31744.945            0            0    71287.205    6375.2678   -26619.219    87676.168    1.0952811 
  602000     8661     303.7275    62.201464   -31995.316    5226.6085            0   -31995.316            0            0    71109.531    6304.2386   -26768.708     87590.16    1.0963566 
  603000     8661    298.52345   -238.70558   -31945.912    5137.0561            0   -31945.912            0            0    71205.158    6261.8965   -26808.856    88600.661    1.0838525 
  604000     8661    297.70823   -123.51028   -31828.393    5123.0276            0   -31828.393            0            0    71348.819    6235.3321   -26705.366    88724.536    1.0823393 
  605000     8661    302.73902    73.312343   -31976.265    5209.5986            0   -31976.265            0            0    71075.618    6360.8689   -26766.666    88289.181    1.0876763 
  606000     8661    304.69754    395.28908   -31755.196    5243.3012            0   -31755.196            0            0    71313.796    6340.7928   -26511.895    87717.048    1.0947706 
  607000     8661    299.72514     14.15674   -31772.084    5157.7351            0   -31772.084            0            0    71454.195    6183.7916   -26614.348    87730.223    1.0946062 
  608000     8661    297.05594   -219.78582   -31800.851     5111.803            0   -31800.851            0            0    71426.146    6183.6375   -26689.048     88391.26    1.0864202 
  609000     8661    302.99565   -61.678487   -31846.595    5214.0148            0   -31846.595            0            0    71342.854    6222.4809    -26632.58    88336.083    1.0870988 
  610000     8661    302.43125    13.639376   -31812.279    5204.3024            0   -31812.279            0            0    71385.925    6211.8068   -26607.976     87884.27    1.0926876 
  611000     8661    304.12103   -16.994894   -31778.067    5233.3805            0   -31778.067            0            0    71416.505    6213.7157   -26544.686    88160.649     1.089262 
  612000     8661    300.67463   -61.696277    -31998.23    5174.0742            0    -31998.23            0            0    71133.875    6278.6847   -26824.155    87582.189    1.0964564 
  613000     8661    298.14828   -229.69748   -31834.964    5130.6002            0   -31834.964            0            0    71412.241    6161.1376   -26704.364    87927.455    1.0921509 
  614000     8661    302.10315   -27.051998   -32012.916    5198.6564            0   -32012.916            0            0    71050.992    6348.0985    -26814.26    88272.068    1.0878872 
  615000     8661    300.64716   -49.401243   -31974.469    5173.6014            0   -31974.469            0            0    71147.794    6290.1284   -26800.868    87895.558    1.0925472 
  616000     8661     295.6559   -264.49121   -31928.871    5087.7107            0   -31928.871            0            0    71257.959    6224.2791    -26841.16    88388.866    1.0864496 
  617000     8661    299.46468   -179.65914   -31795.938     5153.253            0   -31795.938            0            0    71404.751    6207.8468   -26642.685    88813.094      1.08126 
  618000     8661    296.05857    286.97242   -31968.814    5094.6399            0   -31968.814            0            0    71011.639    6429.9229   -26874.174    88187.512    1.0889302 
  619000     8661    299.96953   -392.60173   -31745.654    5161.9406            0   -31745.654            0            0    71516.428    6144.3862   -26583.713    89343.968    1.0748353 
  620000     8661    292.78439    128.28516   -31809.508    5038.2972            0   -31809.508            0            0    71274.449    6325.1651   -26771.211    88215.558     1.088584 
  621000     8661     299.7115   -227.06881   -31742.278    5157.5003            0   -31742.278            0            0    71563.727    6103.6404   -26584.778    87824.001    1.0934374 
  622000     8661     301.2306    519.47701   -31930.494    5183.6414            0   -31930.494            0            0    71004.497    6474.9066   -26746.853    87725.142    1.0946696 
  623000     8661     300.8095    70.366158   -31952.194     5176.395            0   -31952.194            0            0    71141.822    6312.9861   -26775.799    88078.464    1.0902784 
  624000     8661    302.76436    192.31769   -32049.452    5210.0347            0   -32049.452            0            0      70964.1    6397.9242   -26839.418    87993.474    1.0913315 
  625000     8661    303.64429   -106.35402   -32079.127    5225.1767            0   -32079.127            0            0    71038.257    6293.0625    -26853.95    88136.998    1.0895543 
  626000     8661    302.57198   -206.74855   -32037.356    5206.7242            0   -32037.356            0            0     71105.99    6269.4213   -26830.632    88288.193    1.0876884 
  627000     8661    295.02958   -32.867183   -31919.905    5076.9329            0   -31919.905            0            0    71206.709    6287.7827   -26842.972    88388.703    1.0864516 
  628000     8661    297.27171    23.997565   -31983.197    5115.5159            0   -31983.197            0            0      71102.3    6323.4982   -26867.681    87891.562    1.0925969 
  629000     8661    297.09232    392.28581   -31776.999     5112.429            0   -31776.999            0            0    71236.944    6399.0267    -26664.57    88152.273    1.0893655 
  630000     8661    300.50353    38.229854   -31949.239    5171.1297            0   -31949.239            0            0    71183.759    6279.2737   -26778.109    87649.441    1.0956151 
  631000     8661    299.03341   -208.56154   -31708.673    5145.8317            0   -31708.673            0            0    71611.619    6091.6931   -26562.841    87963.233    1.0917067 
  632000     8661    293.69092   -494.08919   -31733.249    5053.8969            0   -31733.249            0            0    71658.718    6017.4532   -26679.352    88053.609    1.0905862 
  633000     8661    303.57265   -92.387403   -31746.546    5223.9439            0   -31746.546            0            0    71406.259    6253.2988   -26522.602    89271.565     1.075707 
  634000     8661    302.19358    30.522843   -31779.798    5200.2125            0   -31779.798            0            0      71367.7     6268.939   -26579.585    88759.208    1.0819165 
  635000     8661    302.66249    34.402477   -31755.785    5208.2816            0   -31755.785            0            0    71443.659     6209.997   -26547.503    88141.837    1.0894945 
  636000     8661    298.06365   -272.13206   -31741.678    5129.1438            0   -31741.678            0            0    71552.253     6119.036   -26612.534     88309.37    1.0874276 
  637000     8661    302.10773   -605.38107   -32011.592    5198.7352            0   -32011.592            0            0    71310.779    6087.9699   -26812.857    88190.284     1.088896 
  638000     8661     301.2536    68.629732   -31790.361    5184.0371            0   -31790.361            0            0    71357.934    6260.1039   -26606.324    88086.742     1.090176 
  639000     8661    304.87828    490.08453    -31795.43    5246.4113            0    -31795.43            0            0    71198.557    6415.3902   -26549.019    88256.704    1.0880765 
  640000     8661    295.89827    240.05023   -31869.107    5091.8815            0   -31869.107            0            0    71136.517    6405.6205   -26777.225    88711.859    1.0824939 
  641000     8661    299.58091    43.337683   -31853.214    5155.2531            0   -31853.214            0            0    71240.153    6318.6974   -26697.961    88776.399     1.081707 
  642000     8661    300.57153    365.44961   -31817.878       5172.3            0   -31817.878            0            0      71145.2    6444.5938   -26645.578    88675.712    1.0829352 
  643000     8661     299.3662    457.93667   -32014.133    5151.5584            0   -32014.133            0            0    70881.213    6518.4069   -26862.575    87721.248    1.0947182 
  644000     8661    302.07088    149.89525   -32009.998     5198.101            0   -32009.998            0            0    71042.968    6358.9251   -26811.897    87821.569    1.0934677 
  645000     8661    297.01047   -44.115281   -32054.392    5111.0205            0   -32054.392            0            0    71023.365    6331.5905   -26943.372     87854.73     1.093055 
  646000     8661    295.00951    96.231123   -31921.006    5076.5874            0   -31921.006            0            0    71096.904    6389.7228   -26844.418    88639.046    1.0833831 
  647000     8661    300.82146    180.10243   -32005.795    5176.6007            0   -32005.795            0            0    70974.095      6433.29   -26829.194    88335.898    1.0871011 
  648000     8661    303.28484   -93.870172   -31828.046    5218.9912            0   -31828.046            0            0    71374.856    6206.3142   -26609.055    88079.777    1.0902622 
  649000     8661    297.07691    615.52089   -31872.204    5112.1637            0   -31872.204            0            0    71022.334     6513.874    -26760.04    87474.373    1.0978078 
  650000     8661    297.51204    202.79528   -31971.923    5119.6516            0   -31971.923            0            0    71068.796    6373.4744   -26852.272    88091.376    1.0901186 
  651000     8661    300.10924   -61.671304   -31894.419    5164.3447            0   -31894.419            0            0     71258.49    6252.7274   -26730.074    88192.638    1.0888669 
  652000     8661    298.34968   -250.92917   -31760.123    5134.0659            0   -31760.123            0            0    71502.595    6145.1829   -26626.057    88543.426    1.0845531 
  653000     8661    307.24678   -177.96596   -32030.524    5287.1692            0   -32030.524            0            0    71139.144    6243.7579   -26743.355     88288.45    1.0876853 
  654000     8661    302.55407    -528.7731   -31911.378     5206.416            0   -31911.378            0            0    71408.615    6087.0197   -26704.962    88240.417    1.0882774 
  655000     8661    298.56425    249.11513   -31988.526    5137.7582            0   -31988.526            0            0    70995.396    6429.5125   -26850.768    88388.467    1.0864545 
  656000     8661    301.13975    237.24521    -31906.57    5182.0779            0    -31906.57            0            0    71121.881    6382.4652   -26724.492    87820.336     1.093483 
  657000     8661    298.85708   -63.280761   -31891.072    5142.7973            0   -31891.072            0            0    71243.341    6273.8323   -26748.275    88321.204    1.0872819 
  658000     8661    299.56366   -14.967813   -32025.099    5154.9563            0   -32025.099            0            0    71045.699    6342.2268   -26870.143    88372.474    1.0866511 
  659000     8661    299.35664   -373.05597   -31776.021    5151.3939            0   -31776.021            0            0    71501.341    6132.8157   -26624.627    88753.247    1.0819891 
  660000     8661    301.52546    219.93788   -31823.411    5188.7154            0   -31823.411            0            0    71257.147    6330.7502   -26634.696    88487.072    1.0852438 
  661000     8661     294.7778    158.88327   -31892.687    5072.6002            0   -31892.687            0            0    71109.315    6406.0715   -26820.087    88883.918    1.0803985 
  662000     8661     300.2408   -689.55967   -31852.396    5166.6086            0   -31852.396            0            0    71502.899    6051.6763   -26685.788    88694.203    1.0827094 
  663000     8661    297.80979   -124.37373   -31890.583    5124.7752            0   -31890.583            0            0    71235.876    6285.9715   -26765.808    88926.397    1.0798824 
  664000     8661    297.66725   -161.34676   -31842.537    5122.3224            0   -31842.537            0            0    71368.756    6199.3475   -26720.215    88349.307    1.0869361 
  665000     8661    298.45318    130.79302   -31831.718     5135.847            0   -31831.718            0            0        71266    6309.4261   -26695.871    88118.948    1.0897775 
  666000     8661    300.34073    269.41595   -31965.541    5168.3282            0   -31965.541            0            0    71061.462    6387.7318   -26797.212    87671.337    1.0953414 
  667000     8661    298.24866    73.959287   -31850.507    5132.3275            0   -31850.507            0            0    71250.807    6306.9666    -26718.18    88404.719    1.0862548 
  668000     8661    299.52158    32.326423   -31827.161    5154.2321            0   -31827.161            0            0    71354.765    6233.4393   -26672.929    88041.837     1.090732 
  669000     8661     293.3052    8.9128525   -31768.355    5047.2594            0   -31768.355            0            0    71417.525    6223.9493   -26721.096    88129.148    1.0896514 
  670000     8661    299.26117   -282.74175   -31878.008     5149.751            0   -31878.008            0            0    71390.483    6142.5562   -26728.257    88006.409    1.0911711 
  671000     8661    299.67393    223.64002   -31839.765    5156.8538            0   -31839.765            0            0    71181.969    6388.6935   -26682.911    88237.529     1.088313 
  672000     8661    298.73243    73.428191   -31719.481    5140.6524            0   -31719.481            0            0    71405.982    6281.5298   -26578.829    88662.715    1.0830939 
  673000     8661    300.80746   -123.59329    -31765.52    5176.3599            0    -31765.52            0            0    71403.298    6244.2231    -26589.16    89219.773    1.0763315 
  674000     8661    306.46006   0.14551692   -31885.169    5273.6311            0   -31885.169            0            0    71253.227    6271.5153   -26611.538    88158.988    1.0892826 
  675000     8661     299.6218    221.81714   -31971.823    5155.9568            0   -31971.823            0            0    70976.805     6461.772   -26815.866    88423.071    1.0860293 
  676000     8661    305.78977    406.62122   -31860.542    5262.0965            0   -31860.542            0            0    71103.573    6442.0505   -26598.445    88318.545    1.0873147 
  677000     8661    299.34701   -162.25713   -31906.679    5151.2282            0   -31906.679            0            0    71249.979    6254.7464   -26755.451     88402.84    1.0862779 
  678000     8661    300.48623   -263.96451   -32018.629    5170.8321            0   -32018.629            0            0    71165.647    6226.7014   -26847.797    88165.605    1.0892008 
  679000     8661    302.83267    208.28537   -31889.008    5211.2102            0   -31889.008            0            0    71218.775    6304.5749   -26677.797    87558.249    1.0967562 
  680000     8661    301.43589    -125.2118   -31878.605     5187.174            0   -31878.605            0            0    71306.684    6227.1709   -26691.431    88282.989    1.0877526 
  681000     8661    299.86085   -90.253371   -31941.754    5160.0703            0   -31941.754            0            0    71220.563    6250.8854   -26781.684    87968.854    1.0916369 
  682000     8661    301.09799    -21.10773    -31856.69    5181.3594            0    -31856.69            0            0    71286.291    6266.4644    -26675.33    88380.675    1.0865503 
  683000     8661    299.39991   -16.857807   -31811.594    5152.1384            0   -31811.594            0            0    71368.101    6234.2054   -26659.456    88248.851    1.0881734 
  684000     8661    303.97362   -50.261726   -31964.379    5230.8438            0   -31964.379            0            0    71189.838    6259.5798   -26733.535    88111.823    1.0898656 
  685000     8661    297.61159   -347.55074    -31917.22    5121.3647            0    -31917.22            0            0     71344.19    6148.8852   -26795.855    88019.514    1.0910086 
  686000     8661    295.87392    123.38321   -31887.377    5091.4624            0   -31887.377            0            0    71187.988    6334.9835   -26795.914    88154.497     1.089338 
  687000     8661    299.61106    -374.3767   -31788.393     5155.772            0   -31788.393            0            0    71510.817    6113.3137   -26632.621     88626.24    1.0835397 
  688000     8661    299.08386   -320.41441    -31753.56    5146.6998            0    -31753.56            0            0    71477.772    6181.1274    -26606.86    89720.019    1.0703302 
  689000     8661    297.87967   -14.781993   -31797.009    5125.9779            0   -31797.009            0            0    71308.059    6304.3243   -26671.031    89110.436    1.0776521 
  690000     8661    294.90583    62.462369   -31801.351    5074.8034            0   -31801.351            0            0    71306.752    6303.2168   -26726.547     88657.14     1.083162 
  691000     8661    300.80853    -478.0869   -31815.741    5176.3783            0   -31815.741            0            0    71504.833    6088.9728   -26639.363    89051.529     1.078365 
  692000     8661    299.36921   -70.484937   -31723.012    5151.6102            0   -31723.012            0            0    71476.053    6211.1591   -26571.402    88282.256    1.0877616 
  693000     8661      297.956   -215.65101   -31969.082    5127.2913            0   -31969.082            0            0    71244.444    6199.7189   -26841.791     87897.52    1.0925228 
  694000     8661    303.02067     106.8594   -31941.163    5214.4453            0   -31941.163            0            0    71140.261    6331.5339   -26726.718    88185.605    1.0889538 
  695000     8661    291.94024    103.26798   -31818.188    5023.7709            0   -31818.188            0            0     71267.15     6328.441   -26794.417    88234.116    1.0883551 
  696000     8661    300.77171    604.28422   -31923.319    5175.7447            0   -31923.319            0            0    70951.236    6536.9704   -26747.574    88172.964    1.0891099 
  697000     8661    301.59292     542.3782   -31780.779    5189.8762            0   -31780.779            0            0    71174.538    6454.9354   -26590.902     88306.65    1.0874611 
  698000     8661      293.207   -228.15206   -31951.843    5045.5696            0   -31951.843            0            0    71228.921    6229.6012   -26906.274    88371.075    1.0866683 
  699000     8661     298.8782    280.61061   -31927.371    5143.1607            0   -31927.371            0            0    71061.756    6422.2413    -26784.21    88236.183    1.0883296 
  700000     8661    300.45432   -39.873593   -31814.346     5170.283            0   -31814.346            0            0    71342.773    6256.0562   -26644.063    88536.183    1.0846418 
  701000     8661    301.62289    -300.5564   -31748.913    5190.3919            0   -31748.913            0            0    71489.209    6172.2384   -26558.521     89092.98    1.0778632 
  702000     8661    306.22145   -211.39292   -31694.963    5269.5249            0   -31694.963            0            0    71594.704    6124.4819   -26425.438    88244.206    1.0882306 
  703000     8661    298.92203   -220.68291   -31988.452    5143.9149            0   -31988.452            0            0    71197.524      6226.21   -26844.537    87941.461    1.0919769 
  704000     8661    299.96019   -110.20709   -31878.898    5161.7798            0   -31878.898            0            0    71246.721    6283.8388   -26717.118    88608.089    1.0837616 
  705000     8661    296.34418   -151.40495    -31839.83    5099.5547            0    -31839.83            0            0    71314.232    6254.7026   -26740.276    88954.657    1.0795393 
  706000     8661    306.32988    83.972463   -31948.254    5271.3909            0   -31948.254            0            0    71119.575    6343.7689   -26676.863    88079.565    1.0902648 
  707000     8661    299.40109   -338.49415   -31714.519    5152.1588            0   -31714.519            0            0     71533.66    6159.0225    -26562.36    89355.833    1.0746925 
  708000     8661    299.56557   -116.77675   -31878.292    5154.9892            0   -31878.292            0            0     71263.66    6261.9853   -26723.303    88532.354    1.0846888 
  709000     8661    307.35688    483.31882   -31735.906    5289.0637            0   -31735.906            0            0    71263.254    6413.7552   -26446.842    88375.556    1.0866132 
  710000     8661      296.418    209.04433   -31850.425    5100.8251            0   -31850.425            0            0    71212.071    6351.7865     -26749.6    88138.782    1.0895323 
  711000     8661    303.76518    267.48729   -32061.165     5227.257            0   -32061.165            0            0    70956.264     6390.595   -26833.908     87443.37     1.098197 
  712000     8661    298.30459   -195.09719   -31885.955    5133.2899            0   -31885.955            0            0    71285.785    6240.8176   -26752.665    88534.979    1.0846566 
  713000     8661    299.35858   -66.055826    -31800.92    5151.4272            0    -31800.92            0            0    71424.253    6185.2695   -26649.493    87720.749    1.0947244 
  714000     8661    298.56999    266.70299   -31692.368    5137.8571            0   -31692.368            0            0    71379.034    6333.1938   -26554.511    88301.587    1.0875235 
  715000     8661    297.02404    110.32971   -31852.671     5111.254            0   -31852.671            0            0    71274.829    6285.7757   -26741.417    87970.916    1.0916113 
  716000     8661    304.36888   -261.11302   -31838.531    5237.6455            0   -31838.531            0            0    71425.372    6145.9987   -26600.886     87826.07    1.0934116 
  717000     8661    299.34125    -314.9595   -31998.617     5151.129            0   -31998.617            0            0    71205.944    6205.0909   -26847.488    88319.609    1.0873016 
  718000     8661    298.51165    38.383217   -31806.896     5136.853            0   -31806.896            0            0    71298.351    6304.0131   -26670.043    88644.628    1.0833149 
  719000     8661    303.55828     69.73219   -32108.326    5223.6966            0   -32108.326            0            0    70928.284    6378.5609    -26884.63    87891.025    1.0926036 
  720000     8661    297.65119   -60.731381   -31714.054    5122.0461            0   -31714.054            0            0    71418.086    6271.0536   -26592.008    89171.889    1.0769094 
  721000     8661    301.71919   -27.916876   -31888.029    5192.0492            0   -31888.029            0            0    71256.935    6264.8161    -26695.98    88243.241    1.0882425 
  722000     8661    301.61558   -271.12008   -31727.299    5190.2661            0   -31727.299            0            0    71566.235    6119.7291   -26537.033     88206.67    1.0886937 
  723000     8661    301.81796   -267.95991   -31800.383    5193.7488            0   -31800.383            0            0    71495.098    6111.2945   -26606.634    88294.804     1.087607 
  724000     8661    299.38263    114.55722   -31733.104     5151.841            0   -31733.104            0            0    71402.438    6277.4505   -26581.263    88235.198    1.0883417 
  725000     8661    301.90922    43.818058   -31861.988    5195.3193            0   -31861.988            0            0    71269.869    6279.2331   -26666.669    88233.507    1.0883626 
  726000     8661     300.5383    388.64414   -31734.146    5171.7281            0   -31734.146            0            0    71270.716    6401.8989   -26562.418    88472.783    1.0854191 
  727000     8661    294.46424     122.9918   -31760.923    5067.2044            0   -31760.923            0            0    71402.109    6248.8435   -26693.718    87225.512    1.1009399 
  728000     8661    295.95395   -48.845356   -31799.944    5092.8396            0   -31799.944            0            0    71400.631    6209.7539   -26707.104    87762.885    1.0941989 
  729000     8661    299.43062    155.64661   -31723.004    5152.6669            0   -31723.004            0            0    71414.467    6275.6828   -26570.337    88086.767    1.0901756 
  730000     8661    296.62015    211.34924   -31867.921    5104.3037            0   -31867.921            0            0    71201.174    6341.8409   -26763.617    87861.181    1.0929747 
  731000     8661    298.14752   -56.484308   -31698.728     5130.587            0   -31698.728            0            0    71555.653     6160.472   -26568.141    88189.067     1.088911 
  732000     8661     301.3109    53.383885   -31796.191    5185.0231            0   -31796.191            0            0    71369.218    6250.2281   -26611.167    88119.985    1.0897647 
  733000     8661    304.75553    429.47815   -32054.493    5244.2991            0   -32054.493            0            0    70935.856    6421.7358   -26810.194     87138.28     1.102042 
  734000     8661       298.91   -103.82677   -31973.595     5143.708            0   -31973.595            0            0    71202.896    6233.6241   -26829.887    87575.207    1.0965438 
  735000     8661    298.50362     185.5108    -31851.63    5136.7149            0    -31851.63            0            0    71208.159    6349.6909   -26714.915    88043.116    1.0907161 
  736000     8661    300.23157   -222.55439   -31892.363    5166.4499            0   -31892.363            0            0    71353.639    6165.7347   -26725.914     88153.46    1.0893509 
  737000     8661    297.91912    -189.4856   -31751.993    5126.6566            0   -31751.993            0            0     71502.91    6156.4668   -26625.336    88383.629     1.086514 
  738000     8661    296.35117   -517.31149   -31755.017    5099.6751            0   -31755.017            0            0    71615.673    6041.3425   -26655.342    88635.941    1.0834211 
  739000     8661     300.4507   -411.63118   -31886.873    5170.2207            0   -31886.873            0            0     71397.99    6120.0278   -26716.653     88135.57     1.089572 
  740000     8661    302.36291    400.69916   -31753.624    5203.1265            0   -31753.624            0            0    71323.963    6329.2755   -26550.497    87541.636    1.0969643 
  741000     8661    298.59041   -207.63267   -31864.013    5138.2085            0   -31864.013            0            0    71360.383    6188.4206   -26725.805    88243.733    1.0882365 
  742000     8661    299.22652    112.99294   -31922.128    5149.1546            0   -31922.128            0            0    71166.165    6320.8409   -26772.974    88023.103    1.0909641 
  743000     8661    303.04475    253.53106   -31696.147    5214.8596            0   -31696.147            0            0    71445.253    6270.0415   -26481.287    88046.184    1.0906781 
  744000     8661    300.78317    508.32309   -31796.475    5175.9418            0   -31796.475            0            0    71178.542    6434.5453   -26620.533    88043.638    1.0907097 
  745000     8661    294.15962   -40.257221   -31793.987    5061.9624            0   -31793.987            0            0    71380.291    6239.5022   -26732.025    88377.161    1.0865935 
  746000     8661    293.85486    153.52434   -31781.546     5056.718            0   -31781.546            0            0    71259.828    6371.7561   -26724.828    88638.652     1.083388 
  747000     8661    301.25708    -2.961644   -31877.004     5184.097            0   -31877.004            0            0    71289.875    6245.6535   -26692.907    87992.877    1.0913389 
  748000     8661    301.41423   -152.83916   -31922.195    5186.8014            0   -31922.195            0            0    71210.481     6277.711   -26735.394    88908.426    1.0801006 
  749000     8661    301.92952    258.27247   -31968.864    5195.6686            0   -31968.864            0            0    71018.066    6418.8026   -26773.196    87990.895    1.0913635 
  750000     8661    297.40605    293.60049   -31916.475    5117.8277            0   -31916.475            0            0    71120.312    6375.5685   -26798.647    87446.478     1.098158 
  751000     8661    302.27194   -234.87343   -31886.573     5201.561            0   -31886.573            0            0    71328.292    6195.0997   -26685.012    88200.954    1.0887643 
  752000     8661    298.27091    399.63292   -31888.215    5132.7104            0   -31888.215            0            0    71059.982    6460.2554   -26755.504    88366.052    1.0867301 
  753000     8661    296.01567   -203.67935    -31948.95    5093.9017            0    -31948.95            0            0    71180.653    6281.2809   -26855.048    88934.515    1.0797838 
  754000     8661    297.83875   -94.351739   -31936.588    5125.2737            0   -31936.588            0            0    71240.379    6235.9074   -26811.314    87900.896    1.0924809 
  755000     8661    300.81662    415.56827    -31957.38    5176.5175            0    -31957.38            0            0    71069.379    6386.2646   -26780.862    87077.397    1.1028126 
  756000     8661    299.67618    47.568024   -31867.751    5156.8925            0   -31867.751            0            0    71269.247    6273.5362   -26710.859    88224.409    1.0884748 
  757000     8661    302.37123     47.38321   -31811.113    5203.2696            0   -31811.113            0            0    71296.493     6304.776   -26607.843    88581.223    1.0840903 
  758000     8661    297.40491   -122.62289   -31932.935     5117.808            0   -31932.935            0            0    71227.437    6250.0431   -26815.127    88042.497    1.0907238 
  759000     8661     297.4753    276.23527    -31869.64    5119.0194            0    -31869.64            0            0    71120.125    6420.2736    -26750.62    88475.808     1.085382 
  760000     8661    297.70576     -307.993   -32019.813    5122.9851            0   -32019.813            0            0    71159.899    6230.0866   -26896.828     88611.39    1.0837213 
  761000     8661    301.96911    435.60222   -31938.801    5196.3499            0   -31938.801            0            0    71019.705    6449.7122   -26742.451    88033.692    1.0908329 
  762000     8661       297.67   -159.80747   -31962.649    5122.3697            0   -31962.649            0            0    71186.829    6257.3057    -26840.28    87985.738    1.0914274 
  763000     8661    300.51448   -57.440561   -31782.007    5171.3181            0   -31782.007            0            0    71387.798    6236.5172   -26610.689    88311.318    1.0874036 
  764000     8661    299.43312   -189.17783   -31873.542      5152.71            0   -31873.542            0            0    71360.455    6175.7801   -26720.832    88257.544    1.0880662 
  765000     8661    301.54028    27.563486   -31957.624    5188.9704            0   -31957.624            0            0    71167.665    6287.2562   -26768.653    87507.511    1.0973921 
  766000     8661    297.26627    382.82033   -31925.182    5115.4224            0   -31925.182            0            0    71025.717    6456.2747    -26809.76    88219.876    1.0885308 
  767000     8661    294.66469   -9.6538787   -31877.454    5070.6537            0   -31877.454            0            0    71310.816    6222.3187     -26806.8    87484.309    1.0976831 
  768000     8661    301.15249   -524.59645   -31802.481    5182.2972            0   -31802.481            0            0    71565.135    6044.4222   -26620.184     88230.12    1.0884044 
  769000     8661    296.72047   -32.205277   -31957.644    5106.0301            0   -31957.644            0            0    71149.315    6305.5548   -26851.614    87892.406    1.0925864 
  770000     8661    295.93645    64.242717   -31867.126    5092.5385            0   -31867.126            0            0    71228.711    6313.2474   -26774.587    88235.342      1.08834 
  771000     8661    304.70991   -625.10184   -31882.932    5243.5141            0   -31882.932            0            0    71472.879    6057.1561   -26639.418    88848.948    1.0808237 
  772000     8661    300.84397   -121.52857   -31880.662    5176.9882            0   -31880.662            0            0    71305.527     6226.142   -26703.674    88179.873    1.0890246 
  773000     8661    295.24579     331.4619   -31761.932    5080.6534            0   -31761.932            0            0    71295.006    6352.0703   -26681.278    88053.672    1.0905854 
  774000     8661    297.84287    118.76949   -31770.907    5125.3446            0   -31770.907            0            0    71338.977    6302.6543   -26645.563    88424.713    1.0860092 
  775000     8661     294.7896   -409.88143   -31992.195    5072.8032            0   -31992.195            0            0     71187.32    6234.1497   -26919.392    88911.795    1.0800597 
  776000     8661    301.49678   -167.26227    -31867.98    5188.2218            0    -31867.98            0            0    71357.593    6187.6234   -26679.759    88378.515    1.0865768 
  777000     8661    300.63592   -235.37868   -31954.585     5173.408            0   -31954.585            0            0    71242.947    6213.4196   -26781.177    88236.289    1.0883283 
  778000     8661    297.03631   -82.309738   -31877.073    5111.4651            0   -31877.073            0            0     71303.38    6233.3562   -26765.608     88239.88     1.088284 
  779000     8661     299.5342     169.8517   -31814.457    5154.4494            0   -31814.457            0            0    71284.992    6308.3618   -26660.007    88148.354     1.089414 
  780000     8661    296.81005   -406.44244   -31827.722    5107.5715            0   -31827.722            0            0    71471.772    6107.4841    -26720.15    88436.452     1.085865 
  781000     8661    297.78973    431.70903   -31759.851    5124.4302            0   -31759.851            0            0    71220.346    6429.6551   -26635.421    88717.763    1.0824219 
  782000     8661    295.66562   -31.985839   -31812.701     5087.878            0   -31812.701            0            0    71334.497    6263.9686   -26724.823    88728.824    1.0822869 
  783000     8661    300.09855    67.008005   -31789.024    5164.1609            0   -31789.024            0            0    71292.674    6332.3761   -26624.863    89169.177    1.0769422 
  784000     8661    299.72488    9.4932677   -31946.191    5157.7306            0   -31946.191            0            0    71138.054    6323.5276    -26788.46     88355.93    1.0868546 
  785000     8661    300.46677    124.59544   -31799.503    5170.4973            0   -31799.503            0            0    71366.106    6244.1856   -26629.006    87408.354     1.098637 
  786000     8661    301.96452   -7.4309798   -31608.185    5196.2708            0   -31608.185            0            0     71612.26    6189.0784   -26411.914    88704.829    1.0825797 
  787000     8661    298.42686    167.82691    -31763.42     5135.394            0    -31763.42            0            0     71320.46    6327.9065   -26628.026    88473.935     1.085405 
  788000     8661    299.49348    245.60589   -31814.411    5153.7486            0   -31814.411            0            0    71259.544    6334.5407   -26660.662    87942.377    1.0919656 
  789000     8661    300.13736    98.647159   -31960.457    5164.8287            0   -31960.457            0            0     71061.86    6385.7249   -26795.628    88411.301    1.0861739 
  790000     8661    298.83151    366.81461   -31766.055    5142.3573            0   -31766.055            0            0    71242.173    6406.4494   -26623.698    88445.577     1.085753 
  791000     8661     299.9139   -187.22178   -31938.121    5160.9833            0   -31938.121            0            0     71243.98    6228.2899   -26777.137     88273.85    1.0878652 
  792000     8661    298.99003   -218.80567   -31765.697    5145.0852            0   -31765.697            0            0    71477.884    6167.6475   -26620.612     88582.53    1.0840743 
  793000     8661     296.8984   -560.19896   -31842.777     5109.092            0   -31842.777            0            0     71492.07    6077.7791   -26733.685    88712.528    1.0824858 
  794000     8661    298.05284   -140.59869   -31728.066    5128.9578            0   -31728.066            0            0    71495.464    6190.8325   -26599.109    88579.773    1.0841081 
  795000     8661    304.64675    0.5244197   -31897.145    5242.4271            0   -31897.145            0            0    71235.606    6277.8824   -26654.717    88032.689    1.0908453 
  796000     8661     295.3539    247.78388   -31971.598    5082.5138            0   -31971.598            0            0    71001.302    6437.3907   -26889.084    88573.794    1.0841813 
  797000     8661    293.17146   -33.045471   -31845.465     5044.958            0   -31845.465            0            0    71309.559     6255.561   -26800.507    88377.152    1.0865936 
  798000     8661    299.23265    638.09434   -31925.192    5149.2602            0   -31925.192            0            0    70990.688    6494.0518   -26775.932     87345.82    1.0994235 
  799000     8661    304.65475    36.518496    -31762.21    5242.5648            0    -31762.21            0            0    71381.387    6262.9652   -26519.645    88611.934    1.0837146 
  800000     8661    298.32577   -265.13892   -31754.298    5133.6544            0   -31754.298            0            0    71535.018    6121.3535   -26620.643    88355.613    1.0868585 
  801000     8661    300.62893   -131.32589   -31771.656    5173.2878            0   -31771.656            0            0    71419.674    6217.2898   -26598.368    88671.968    1.0829809 
  802000     8661    300.60885    164.54313   -31717.918    5172.9422            0   -31717.918            0            0    71392.352    6298.2857   -26544.976    88070.285    1.0903797 
  803000     8661    300.28731   -226.73862   -31973.003    5167.4091            0   -31973.003            0            0    71167.293    6271.3453   -26805.594    88851.077    1.0807978 
  804000     8661    292.35921    87.011172   -31742.952    5030.9806            0   -31742.952            0            0    71346.278    6320.9139   -26711.971    88863.599    1.0806455 
  805000     8661    297.67805    379.10963   -31844.921    5122.5083            0   -31844.921            0            0    71139.774    6422.0293   -26722.413      88095.5    1.0900676 
  806000     8661    295.30788   -353.41106   -31772.309    5081.7219            0   -31772.309            0            0    71476.756    6161.1995   -26690.587    89103.957    1.0777305 
  807000     8661    300.98782   -258.06352   -31926.419    5179.4635            0   -31926.419            0            0    71262.434    6225.3012   -26746.956    88816.743    1.0812156 
  808000     8661     296.8894    -225.4906   -31877.698     5108.937            0   -31877.698            0            0    71330.545    6203.6317   -26768.761    88453.355    1.0856575 
  809000     8661     296.3169    187.32972   -31925.622    5099.0854            0   -31925.622            0            0    71109.796    6374.7756   -26826.536     88207.33    1.0886856 
  810000     8661    297.78594   -156.57243   -31885.181    5124.3649            0   -31885.181            0            0    71306.095    6220.6997   -26760.816    88370.815    1.0866715 
  811000     8661    303.63287    485.89611   -31748.587    5224.9801            0   -31748.587            0            0    71254.131    6403.2941   -26523.607    88122.058    1.0897391 
  812000     8661    302.52474    348.34472   -31930.484    5205.9112            0   -31930.484            0            0    71094.345    6389.4761   -26724.573    87551.161    1.0968449 
  813000     8661    302.56825    -4.223495   -31777.925      5206.66            0   -31777.925            0            0    71386.317    6248.0195   -26571.265    88177.515    1.0890537 
  814000     8661    298.27558   -744.59179   -31727.877    5132.7907            0   -31727.877            0            0    71704.648    5973.6294   -26595.086    89075.746    1.0780718 
  815000     8661    297.30718     -4.09087   -31872.063    5116.1262            0   -31872.063            0            0    71273.963    6266.2457   -26755.937    87786.427    1.0939054 
  816000     8661    296.28091   -291.65228    -31837.91     5098.466            0    -31837.91            0            0    71368.573    6208.0042   -26739.444    89025.243    1.0786834 
  817000     8661    305.39792    96.074228    -31714.68    5255.3535            0    -31714.68            0            0    71422.993    6271.0613   -26459.326    88943.381    1.0796762 
  818000     8661    298.85813   -244.01182   -31908.291    5142.8153            0   -31908.291            0            0    71306.857    6196.7705   -26765.476    88430.222    1.0859415 
  819000     8661    301.57721    31.458785   -31815.759    5189.6058            0   -31815.759            0            0    71353.792    6238.5027   -26626.154    88126.457    1.0896847 
  820000     8661    299.35797   -26.162499   -31885.634    5151.4167            0   -31885.634            0            0    71249.415    6279.8237   -26734.218    88279.847    1.0877913 
  821000     8661    299.63084   -605.34149    -31707.63    5156.1123            0    -31707.63            0            0    71715.921    5981.6591   -26551.518     88875.47    1.0805012 
  822000     8661    299.55605   -410.96766   -31750.932    5154.8254            0   -31750.932            0            0    71585.423     6071.664   -26596.107    88722.218    1.0823675 
  823000     8661    298.25049    -177.2804   -31905.998     5132.359            0   -31905.998            0            0    71298.563    6199.3056    -26773.64    88058.004    1.0905317 
  824000     8661    299.26535     351.1568   -31706.439    5149.8229            0   -31706.439            0            0    71380.396    6322.6643   -26556.617    87900.075    1.0924911 
  825000     8661    302.62442   -1.7590003    -31869.07    5207.6265            0    -31869.07            0            0    71306.926    6230.7645   -26661.443    87459.902    1.0979894 
  826000     8661    298.74468   -44.522754   -32015.817    5140.8631            0   -32015.817            0            0    71123.416    6274.1241   -26874.954    87701.249    1.0949678 
  827000     8661     305.7758   -138.53403   -31876.377    5261.8561            0   -31876.377            0            0    71373.488     6161.787   -26614.521    87795.264    1.0937953 
  828000     8661    297.61324   -209.15063   -31771.581    5121.3931            0   -31771.581            0            0    71570.111    6069.4909   -26650.188    87247.109    1.1006674 
  829000     8661    301.44252    145.40354    -31853.59    5187.2881            0    -31853.59            0            0    71232.361    6322.1514   -26666.302    88087.241    1.0901698 
  830000     8661    299.19992    14.497982   -31912.974     5148.697            0   -31912.974            0            0    71210.802    6286.2667   -26764.277    87749.809    1.0943619 
  831000     8661    300.14946    74.115737   -31800.555    5165.0369            0   -31800.555            0            0    71327.953    6275.9797   -26635.518    87998.577    1.0912682 
  832000     8661    302.62933    540.30448   -31960.031     5207.711            0   -31960.031            0            0    70994.605     6458.671    -26752.32     87443.95    1.0981897 
  833000     8661    296.77226    99.166811   -31863.621    5106.9213            0   -31863.621            0            0    71203.386     6343.948   -26756.699    87996.979     1.091288 
  834000     8661    300.13741   -138.95611   -31722.468    5164.8295            0   -31722.468            0            0    71491.075    6195.3675   -26557.639    88930.219     1.079836 
  835000     8661    303.71216    360.23336    -31741.12    5226.3445            0    -31741.12            0            0    71324.599    6342.1686   -26514.775    88124.287    1.0897115 
  836000     8661    302.23294   -31.000509   -31827.712    5200.8899            0   -31827.712            0            0    71346.632    6236.1497   -26626.822    88457.008    1.0856127 
  837000     8661    306.14155   -259.41633   -31821.742    5268.1501            0   -31821.742            0            0      71468.1    6122.0832   -26553.592    87811.317    1.0935954 
  838000     8661    298.24127   -322.24271   -31841.022    5132.2004            0   -31841.022            0            0    71432.766    6135.8046   -26708.822    88197.283    1.0888096 
  839000     8661    302.15117   -252.30081   -31925.484    5199.4827            0   -31925.484            0            0    71289.346    6192.4302   -26726.001     87941.51    1.0919763 
  840000     8661    295.28397    7.7246615   -31967.324    5081.3105            0   -31967.324            0            0    71176.728      6266.98   -26886.013    87500.095    1.0974851 
  841000     8661    302.85729   -63.443795   -32049.304    5211.6338            0   -32049.304            0            0    71049.638    6313.6719   -26837.671    87768.031    1.0941347 
  842000     8661    301.47842    -142.5445   -31797.807    5187.9059            0   -31797.807            0            0    71414.817     6194.373   -26609.901    87881.694    1.0927196 
  843000     8661    302.37068   -251.85724   -31847.444    5203.2602            0   -31847.444            0            0    71394.131    6173.0938   -26644.184    88570.335    1.0842236 
  844000     8661     299.8519   -99.560174   -31842.658    5159.9165            0   -31842.658            0            0    71391.346    6175.8782   -26682.741     87588.24    1.0963806 
  845000     8661    301.32911    73.214138   -31921.057    5185.3366            0   -31921.057            0            0    71154.809    6335.2604    -26735.72    88547.664    1.0845012 
  846000     8661    296.76556    238.30085   -31840.596     5106.806            0   -31840.596            0            0    71217.384    6353.8731    -26733.79    87947.221    1.0919054 
  847000     8661    298.15988    92.543175   -31804.765    5130.7997            0   -31804.765            0            0    71285.436    6321.9142   -26673.965    88711.122    1.0825029 
  848000     8661     303.5597   -237.97447   -31942.892    5223.7211            0   -31942.892            0            0    71258.897    6210.0492   -26719.171    88349.747    1.0869306 
  849000     8661    303.17357    249.41109   -31950.673    5217.0764            0   -31950.673            0            0    71081.544     6375.049   -26733.597    87818.481    1.0935061 
  850000     8661    300.08581    -259.8612   -31825.201    5163.9416            0   -31825.201            0            0    71408.834    6173.7213   -26661.259    88670.561    1.0829981 
  851000     8661    295.05233   -11.987104    -31822.61    5077.3243            0    -31822.61            0            0    71304.386    6286.8622   -26745.285    88499.488    1.0850916 
  852000     8661    296.47925   -332.81525   -31860.368    5101.8791            0   -31860.368            0            0    71384.749    6165.5827   -26758.489    88521.563     1.084821 
  853000     8661    296.76932    172.44299   -31674.298    5106.8706            0   -31674.298            0            0    71362.304    6374.1908   -26567.427    89169.955    1.0769328 
  854000     8661    308.78701   -246.58128   -31742.373    5313.6737            0   -31742.373            0            0    71520.523    6151.4336   -26428.699    88671.381    1.0829881 
  855000     8661    298.82864   -225.33366   -31872.445    5142.3079            0   -31872.445            0            0    71321.931    6215.6033   -26730.137    88216.834    1.0885683 
  856000     8661    296.86445   -236.11737   -31854.758    5108.5077            0   -31854.758            0            0    71411.187    6140.1559    -26746.25    87660.354    1.0954787 
  857000     8661    307.06369    189.65919   -31828.802    5284.0185            0   -31828.802            0            0    71277.839    6303.7629   -26544.784    88260.451    1.0880303 
  858000     8661     298.5444    114.37617   -31891.757    5137.4166            0   -31891.757            0            0    71224.209    6294.2172    -26754.34    87859.633     1.092994 
  859000     8661     298.3982   -22.328539   -31855.249    5134.9008            0   -31855.249            0            0    71275.574    6277.9434   -26720.348    88554.823    1.0844135 
  860000     8661    298.78966    211.30393   -31896.642    5141.6371            0   -31896.642            0            0    71141.144    6371.3924   -26755.005    88117.417    1.0897965 
  861000     8661    302.40897    258.95865   -31898.127    5203.9189            0   -31898.127            0            0    71166.037    6345.7766   -26694.208     87485.89    1.0976633 
  862000     8661    306.53494     453.1749   -31931.628    5274.9196            0   -31931.628            0            0    71049.509    6431.5211   -26656.709    87503.121    1.0974471 
  863000     8661    303.55042    393.54884   -31835.495    5223.5614            0   -31835.495            0            0    71192.584    6385.1149   -26611.934    87838.871    1.0932523 
  864000     8661    298.74402   -227.28659   -31765.262    5140.8517            0   -31765.262            0            0    71466.612    6180.3968    -26624.41    89032.726    1.0785927 
  865000     8661    300.29102    243.98635   -31889.746    5167.4729            0   -31889.746            0            0    71176.762    6341.3506   -26722.274    87916.913    1.0922819 
  866000     8661    296.46935     436.3427   -31965.027    5101.7087            0   -31965.027            0            0    70945.443    6502.0564   -26863.318    88168.319    1.0891673 
  867000     8661    302.03924     -543.133   -31985.696    5197.5567            0   -31985.696            0            0    71315.208     6110.306    -26788.14    88396.245    1.0863589 
  868000     8661    298.84633   -432.64176   -31830.727    5142.6124            0   -31830.727            0            0    71469.813    6110.7952   -26688.114    88590.195    1.0839806 
  869000     8661    301.31857    337.84948   -31939.188    5185.1552            0   -31939.188            0            0    71025.478    6445.7924   -26754.033    88305.914    1.0874702 
  870000     8661     301.9597    126.31624   -31937.826    5196.1878            0   -31937.826            0            0    71144.918    6330.0348   -26741.638    87956.333    1.0917923 
  871000     8661    303.18684    98.803879   -31747.813    5217.3048            0   -31747.813            0            0    71444.221    6222.0243   -26530.508    87781.921    1.0939616 
  872000     8661    296.98232   -312.32327   -31817.391     5110.536            0   -31817.391            0            0    71431.498    6164.8963   -26706.855     88887.21    1.0803585 
  873000     8661    301.98441   -288.77993    -31836.38    5196.6131            0    -31836.38            0            0     71419.65    6154.5858   -26639.767     88233.14    1.0883671 
  874000     8661    302.25086   -44.540121   -31731.399    5201.1983            0   -31731.399            0            0    71438.738    6239.4418   -26530.201    88851.443    1.0807933 
  875000     8661    298.64338   -108.20387   -31734.886    5139.1199            0   -31734.886            0            0    71597.391     6078.019   -26595.766    87277.142    1.1002886 
  876000     8661    299.19123    3.0345498   -31791.056    5148.5474            0   -31791.056            0            0    71378.296    6245.3053   -26642.509    88203.336    1.0887349 
  877000     8661    300.38138    308.89949    -32013.73    5169.0279            0    -32013.73            0            0    70925.864    6471.8344   -26844.703    88557.347    1.0843826 
  878000     8661    298.06466    289.12924   -31993.511    5129.1611            0   -31993.511            0            0    70979.542    6433.7378    -26864.35    87830.261    1.0933595 
  879000     8661    298.17471    660.46054   -31837.832     5131.055            0   -31837.832            0            0    71039.082    6530.7557   -26706.777     87959.24    1.0917562 
  880000     8661    298.29031   -94.630875   -31930.128    5133.0442            0   -31930.128            0            0    71214.236    6269.5028   -26797.084    88102.784    1.0899775 
  881000     8661    294.39617   -202.44238   -31690.785     5066.033            0   -31690.785            0            0    71556.475    6164.7906   -26624.752    88560.595    1.0843428 
  882000     8661    301.86498    285.50296   -31800.537    5194.5578            0   -31800.537            0            0     71247.13    6359.5446   -26605.979    88269.503    1.0879188 
  883000     8661    305.59761   -89.374059   -31921.161    5258.7897            0   -31921.161            0            0    71289.587    6194.9856   -26662.371    87519.094    1.0972468 
  884000     8661    299.35143   -370.23133    -31676.81    5151.3041            0    -31676.81            0            0     71709.47     6027.085   -26525.506    88022.923    1.0909664 
  885000     8661    296.27933   -307.59303   -31823.725    5098.4388            0   -31823.725            0            0    71458.959    6129.1363   -26725.287    88219.445    1.0885361 
  886000     8661     293.1662    44.850363   -31822.902    5044.8674            0   -31822.902            0            0    71320.096    6270.6775   -26778.034    87915.008    1.0923055 
  887000     8661    297.24271    46.146705    -31694.39    5115.0169            0    -31694.39            0            0    71499.789    6219.2122   -26579.373    88055.867    1.0905582 
  888000     8661    296.02117   -171.11762   -31875.775    5093.9964            0   -31875.775            0            0    71329.426    6207.8359   -26781.779    88149.034    1.0894056 
  889000     8661    296.68822    55.964728   -31935.256    5105.4751            0   -31935.256            0            0    71121.915    6346.7871   -26829.781    88515.937    1.0848899 
  890000     8661    299.62259   -68.704903   -31948.129    5155.9704            0   -31948.129            0            0    71174.619    6285.0207   -26792.159     88193.61    1.0888549 
  891000     8661    294.04957   -508.69015   -31945.644    5060.0687            0   -31945.644            0            0    71320.537    6146.0246   -26885.575    88788.759    1.0815564 
  892000     8661    299.97898    370.51904   -31885.332    5162.1032            0   -31885.332            0            0    71097.361    6427.8515   -26723.229    87933.446    1.0920765 
  893000     8661    299.65394   -393.80031    -31864.55    5156.5098            0    -31864.55            0            0    71385.438    6161.5669    -26708.04    88860.831    1.0806792 
  894000     8661    300.68353   -208.05398   -31905.588    5174.2273            0   -31905.588            0            0    71262.289    6244.7339   -26731.361    88935.665    1.0797698 
  895000     8661    297.19779   -389.34154   -31866.266     5114.244            0   -31866.266            0            0    71424.268    6117.7349   -26752.022    88620.225    1.0836132 
  896000     8661    300.28845   -246.71419   -31798.395    5167.4286            0   -31798.395            0            0     71466.42     6142.153   -26630.967    88078.186    1.0902819 
  897000     8661    302.09583   -466.35123   -31852.978    5198.5304            0   -31852.978            0            0    71456.963    6100.8847   -26654.448    88372.241     1.086654 
  898000     8661    298.90044    192.30368   -31765.333    5143.5434            0   -31765.333            0            0    71289.218    6357.7672   -26621.789    88691.182    1.0827463 
  899000     8661    299.08298   -389.87915   -31933.355    5146.6846            0   -31933.355            0            0    71285.903    6194.5785    -26786.67    88737.572    1.0821802 
  900000     8661     299.2542   -390.82054   -31924.686    5149.6311            0   -31924.686            0            0      71305.4    6179.0574   -26775.055    89115.364    1.0775925 
  901000     8661    299.57399    124.21841   -31759.306     5155.134            0   -31759.306            0            0    71363.506    6287.9935   -26604.172    88630.254    1.0834906 
  902000     8661    291.46515   -25.807822   -31821.297    5015.5953            0   -31821.297            0            0     71352.79    6237.9421   -26805.702    87995.189    1.0913102 
  903000     8661    298.38314   -311.37807   -31795.251    5134.6417            0   -31795.251            0            0     71494.94    6115.8967   -26660.609    88085.963    1.0901856 
  904000     8661    298.49215   -12.296582   -31737.219    5136.5175            0   -31737.219            0            0     71463.47    6211.5331   -26600.702    88556.494    1.0843931 
  905000     8661    299.84977   -341.31201   -31779.872    5159.8797            0   -31779.872            0            0    71570.928    6058.4304   -26619.992    87994.896    1.0913138 
  906000     8661    300.12288   -207.37604   -31893.603    5164.5794            0   -31893.603            0            0    71340.099    6181.2614   -26729.023    87998.165    1.0912733 
  907000     8661     302.6597    188.91518   -31825.861    5208.2336            0   -31825.861            0            0    71254.185    6333.7742   -26617.628    88298.388    1.0875629 
  908000     8661     299.0599    79.449954   -31836.634    5146.2876            0   -31836.634            0            0    71263.689    6305.4448   -26690.346    88367.495    1.0867123 
  909000     8661    300.01259   -427.60305   -31945.274    5162.6815            0   -31945.274            0            0    71370.024    6096.2404   -26782.593    87930.649    1.0921112 
  910000     8661      299.243   -66.148725   -31731.979    5149.4383            0   -31731.979            0            0    71489.191    6190.4172   -26582.541    88300.539    1.0875364 
  911000     8661    298.32926    344.18003   -31722.382    5133.7145            0   -31722.382            0            0    71310.672    6377.2929   -26588.667    88359.619    1.0868092 
  912000     8661    300.75091   -114.01701   -32025.132    5175.3867            0   -32025.132            0            0    71141.816    6243.6833   -26849.745     87647.48    1.0956396 
  913000     8661    301.25522   -296.65073   -32004.196     5184.065            0   -32004.196            0            0    71223.822     6186.145   -26820.131    87947.442    1.0919027 
  914000     8661    296.72324   -98.264848   -31728.031    5106.0778            0   -31728.031            0            0    71496.476    6184.1874   -26621.953    88153.484    1.0893506 
  915000     8661    296.75782    -100.6526   -31812.088    5106.6728            0   -31812.088            0            0    71421.868    6176.7115   -26705.415    87954.075    1.0918203 
  916000     8661    306.25898    203.62855   -31889.289    5270.1709            0   -31889.289            0            0    71203.264    6317.2568   -26619.118    87802.752     1.093702 
  917000     8661    302.52858   -109.74284   -31771.917    5205.9773            0   -31771.917            0            0    71467.178     6165.862   -26565.939    87855.575    1.0930444 
  918000     8661     297.3839   -279.26978   -31929.517    5117.4465            0   -31929.517            0            0    71261.888    6219.4984   -26812.071    88967.966    1.0793778 
  919000     8661    299.37024   -145.69979   -31857.326    5151.6279            0   -31857.326            0            0    71334.566    6216.0197   -26705.698    88710.995    1.0825045 
  920000     8661    298.01505    98.566913   -31910.814    5128.3074            0   -31910.814            0            0    71178.163    6325.1739   -26782.507    87901.615    1.0924719 
  921000     8661    297.66057    52.365302   -31953.443    5122.2075            0   -31953.443            0            0     71165.99    6287.0015   -26831.236    87667.016    1.0953954 
  922000     8661     303.0301    527.60109   -31829.344    5214.6076            0   -31829.344            0            0    71146.846    6432.0831   -26614.736    88115.635    1.0898185 
  923000     8661    302.22072    154.73895   -32006.091    5200.6796            0   -32006.091            0            0    70923.789    6481.5226   -26805.412    89190.428    1.0766856 
  924000     8661    302.67017    209.23737   -31890.993    5208.4139            0   -31890.993            0            0    71093.878    6427.2048   -26682.579    89143.822    1.0772485 
  925000     8661    288.49764     377.7804   -31737.628    4964.5298            0   -31737.628            0            0    71253.797    6416.3294   -26773.098    88668.563    1.0830225 
  926000     8661    299.60171    158.42298   -31814.676    5155.6111            0   -31814.676            0            0    71326.779    6270.2245   -26659.065    87800.703    1.0937276 
  927000     8661    299.98688    271.17796   -31927.095    5162.2392            0   -31927.095            0            0    71109.084    6372.0878   -26764.856    88064.129    1.0904559 
  928000     8661    298.95156    3.6265858   -31854.696    5144.4231            0   -31854.696            0            0    71279.281    6277.6027   -26710.272    88388.935    1.0864488 
  929000     8661    295.69912    234.45723   -31990.146    5088.4544            0   -31990.146            0            0    71026.059    6396.8776   -26901.691    87916.331    1.0922891 
  930000     8661    299.78183   -15.195993   -31922.994    5158.7107            0   -31922.994            0            0    71157.053    6331.0393   -26764.283    88711.254    1.0825013 
  931000     8661      304.619    -136.8531   -31804.544    5241.9497            0   -31804.544            0            0    71440.807    6165.0858   -26562.594    88349.232     1.086937 
  932000     8661    298.74357   -218.24648   -31872.586     5140.844            0   -31872.586            0            0    71343.449    6191.5308   -26731.742    88309.814    1.0874222 
  933000     8661    301.15984   -263.76704   -31895.344    5182.4238            0   -31895.344            0            0    71338.159    6177.8013    -26712.92    88514.037    1.0849132 
  934000     8661    305.51198   -367.28426   -31777.335    5257.3162            0   -31777.335            0            0     71516.14    6119.1661   -26520.018    89037.228    1.0785382 
  935000     8661    298.10877    213.51072   -31843.418    5129.9203            0   -31843.418            0            0     71274.75    6293.3816   -26713.498    87687.636    1.0951378 
  936000     8661    301.23876    340.75671   -31753.593    5183.7818            0   -31753.593            0            0    71343.769    6312.6384   -26569.811    87734.784    1.0945493 
  937000     8661    306.11341   -105.57534   -31728.557    5267.6658            0   -31728.557            0            0    71513.161    6170.7444   -26460.891    88428.217    1.0859661 
  938000     8661    298.89746   -170.86305   -31718.672    5143.4922            0   -31718.672            0            0    71513.244    6178.6287    -26575.18    88710.803    1.0825068 
  939000     8661    301.17291   -53.920441   -31749.225    5182.6486            0   -31749.225            0            0    71474.995     6184.663   -26566.576    88414.444    1.0861353 
  940000     8661    300.00767   -321.92705   -31851.125    5162.5969            0   -31851.125            0            0     71438.57    6122.9685   -26688.528    88136.812    1.0895566 
  941000     8661    301.46749   -206.17544   -31793.473    5187.7178            0   -31793.473            0            0    71391.482    6227.0181   -26605.755    88836.689    1.0809728 
  942000     8661    301.90169   -107.67423   -32032.394    5195.1896            0   -32032.394            0            0    71021.769     6353.372   -26837.205    88870.237    1.0805648 
  943000     8661    309.82622   -295.76809   -31847.485    5331.5567            0   -31847.485            0            0    71387.344    6173.3835   -26515.928    88890.449    1.0803191 
  944000     8661    298.63293   -392.34975   -31842.853    5138.9401            0   -31842.853            0            0    71380.502    6187.1896   -26703.913    89201.862    1.0765476 
  945000     8661    296.99273    317.50161   -31958.608    5110.7152            0   -31958.608            0            0    71054.116    6396.9826   -26847.893    87525.773    1.0971631 
  946000     8661    295.79087    391.65975   -31901.998    5090.0334            0   -31901.998            0            0     71101.39    6408.1884   -26811.965     87509.72    1.0973644 
  947000     8661    302.60731    -306.2228   -31792.719    5207.3321            0   -31792.719            0            0    71523.429    6094.0252   -26585.386    87968.535    1.0916409 
  948000     8661    301.62818    162.27508   -31916.307    5190.4831            0   -31916.307            0            0    71165.264    6332.7583   -26725.824    87882.277    1.0927123 
  949000     8661    299.69353   -65.095456   -31854.668    5157.1911            0   -31854.668            0            0    71288.548    6271.2014   -26697.477    88894.552    1.0802692 
  950000     8661    300.44714    192.76076   -31968.715    5170.1593            0   -31968.715            0            0    71125.166    6316.5493   -26798.556    87064.645    1.1029741 
  951000     8661    298.02224   -131.98627   -31825.222    5128.4313            0   -31825.222            0            0    71375.898    6210.1891   -26696.791     88006.98     1.091164 
  952000     8661    301.86586    286.62487   -31848.754     5194.573            0   -31848.754            0            0    71187.565    6370.1288   -26654.181     88183.34    1.0889818 
  953000     8661    293.19189   -144.96467   -31868.192    5045.3095            0   -31868.192            0            0    71334.063    6208.8161   -26822.883    88049.302    1.0906395 
  954000     8661     295.1728   -111.47273   -31639.933    5079.3974            0   -31639.933            0            0    71606.428    6169.2982   -26560.535    88482.742    1.0852969 
  955000     8661     304.7092   -210.25096   -31798.633    5243.5018            0   -31798.633            0            0      71456.6    6154.5468   -26555.131    88283.624    1.0877447 
  956000     8661     304.6644   -44.256978   -31860.248    5242.7309            0   -31860.248            0            0    71303.781    6247.7473   -26617.517    88346.154    1.0869749 
  957000     8661    300.11966     25.53461   -31771.196     5164.524            0   -31771.196            0            0    71372.977    6265.2094   -26606.672    88576.788    1.0841446 
  958000     8661    304.55185   -407.59438   -31856.098    5240.7942            0   -31856.098            0            0    71423.973    6129.8694   -26615.304    88910.133    1.0800799 
  959000     8661    300.51509    72.115646   -31695.258    5171.3287            0   -31695.258            0            0     71490.44    6230.5427   -26523.929    88388.392    1.0864554 
  960000     8661    299.96494   -130.03343   -31657.766    5161.8616            0   -31657.766            0            0    71538.104    6212.0086   -26495.905    89115.206    1.0775944 
  961000     8661    305.74655   -56.267327   -31653.214    5261.3528            0   -31653.214            0            0    71607.772    6146.1037   -26391.861    88248.771    1.0881743 
  962000     8661    299.27398   -10.427773   -31802.786    5149.9714            0   -31802.786            0            0    71333.207    6273.5369   -26652.814    88728.938    1.0822856 
  963000     8661    295.84457    288.94551   -31859.437    5090.9573            0   -31859.437            0            0    71186.899    6364.3738    -26768.48    88022.043    1.0909773 
  964000     8661    297.43226    572.79767   -31811.376    5118.2787            0   -31811.376            0            0    71099.471    6497.3818   -26693.097    88405.609    1.0862438 
  965000     8661    300.47596   -117.21987   -31908.857    5170.6554            0   -31908.857            0            0    71247.526    6259.1369   -26738.202    88459.632    1.0855805 
  966000     8661    296.40303    -172.0703   -31821.658    5100.5675            0   -31821.658            0            0    71399.665    6188.3567    -26721.09    88172.972    1.0891098 
  967000     8661    298.26411   -193.79114   -31721.286    5132.5933            0   -31721.286            0            0    71472.334    6217.1541   -26588.693    89026.479    1.0786684 
  968000     8661    298.16693   -116.80179   -31702.538     5130.921            0   -31702.538            0            0    71505.558    6202.5226   -26571.617    88801.038    1.0814068 
  969000     8661     297.5944    74.176267   -31725.655    5121.0688            0   -31725.655            0            0    71447.172    6236.4856   -26604.587    88328.752     1.087189 
  970000     8661    299.93639   -89.184965   -31690.285    5161.3702            0   -31690.285            0            0    71541.558    6179.5436   -26528.915    88330.315    1.0871698 
  971000     8661     299.2367   -374.06756   -31826.056    5149.3299            0   -31826.056            0            0    71521.297    6063.8404   -26676.726    87969.326    1.0916311 
  972000     8661    298.78538    15.867505   -31791.912    5141.5634            0   -31791.912            0            0    71379.884    6241.0732   -26650.348    88279.206    1.0877992 
  973000     8661    294.76078    187.49097   -31864.303    5072.3072            0   -31864.303            0            0    71205.913    6342.4076   -26791.995    88192.455    1.0888692 
  974000     8661    298.52476    24.275146   -31937.009    5137.0787            0   -31937.009            0            0    71204.877    6267.7848   -26799.931    87868.964    1.0928779 
  975000     8661     296.3282    98.620278    -31980.39    5099.2797            0    -31980.39            0            0    71060.703     6371.796    -26881.11      88268.7    1.0879287 
  976000     8661    299.19572   -228.02634   -31862.248    5148.6247            0   -31862.248            0            0    71349.638    6196.8838   -26713.623    88464.844    1.0855165 
  977000     8661    300.07254    226.02747   -31769.002    5163.7132            0   -31769.002            0            0    71290.401    6348.1609   -26605.289    88603.679    1.0838156 
  978000     8661    299.10498   -93.239343   -31985.036    5147.0632            0   -31985.036            0            0    71147.278    6282.0334   -26837.973    88326.231      1.08722 
  979000     8661    303.03698   -183.77095   -31817.331     5214.726            0   -31817.331            0            0    71379.781    6216.2895   -26602.605    89031.309    1.0786099 
  980000     8661    305.56943   -308.21291   -31765.564    5258.3048            0   -31765.564            0            0    71503.887    6141.4356   -26507.259     88882.86    1.0804113 
  981000     8661    300.71734    161.81921   -31773.883     5174.809            0   -31773.883            0            0     71322.76    6312.1193   -26599.074    88209.629    1.0886572 
  982000     8661    300.79196   -15.122224   -31647.973    5176.0932            0   -31647.973            0            0    71548.119    6215.4902   -26471.879    88673.409    1.0829633 
  983000     8661    298.20889   -285.47435   -31794.769    5131.6431            0   -31794.769            0            0    71479.208    6135.1777   -26663.126    88023.186    1.0909631 
  984000     8661    302.30734    331.36437   -31874.637    5202.1701            0   -31874.637            0            0    71065.098    6471.3849   -26672.467    88867.112    1.0806028 
  985000     8661    292.52086   -280.32906   -31748.424    5033.7623            0   -31748.424            0            0    71512.251    6153.7643   -26714.662     88735.39    1.0822069 
  986000     8661    303.26684    -263.2039   -31774.644    5218.6814            0   -31774.644            0            0    71470.909     6161.991   -26555.962    88648.684    1.0832654 
  987000     8661    298.82007   -435.04941   -31894.344    5142.1604            0   -31894.344            0            0    71407.387    6110.3296   -26752.183    88325.042    1.0872347 
  988000     8661    304.04316   -448.59053   -31860.017    5232.0406            0   -31860.017            0            0    71416.182    6133.3934   -26627.976    88829.792    1.0810568 
  989000     8661    300.89094   -121.44932   -31860.534    5177.7964            0   -31860.534            0            0    71370.992    6182.4988   -26682.738    87817.293    1.0935209 
  990000     8661    300.48131   -160.99933   -31674.868    5170.7473            0   -31674.868            0            0     71592.49    6139.7194    -26504.12    88326.265    1.0872196 
  991000     8661    300.05336   -106.52226   -31949.758    5163.3832            0   -31949.758            0            0     71200.47     6259.387   -26786.375    88174.078    1.0890961 
  992000     8661    297.12458   -185.08439   -31807.872    5112.9841            0   -31807.872            0            0    71407.224    6191.6822   -26694.888    88449.139    1.0857092 
  993000     8661     301.8235    190.02975   -31907.106    5193.8442            0   -31907.106            0            0    71113.042    6387.9794   -26713.262    88436.338    1.0858664 
  994000     8661    295.91986    184.79786   -31954.388    5092.2529            0   -31954.388            0            0    71111.048    6345.4796   -26862.135    87722.359    1.0947043 
  995000     8661    293.39539     293.9793   -31795.888    5048.8114            0   -31795.888            0            0     71270.69    6345.3421   -26747.076    87931.147     1.092105 
  996000     8661    301.92124    -177.5775   -31860.221     5195.526            0   -31860.221            0            0    71311.318    6241.0366   -26664.695    88672.017    1.0829803 
  997000     8661    297.54394   -109.76602   -32024.732    5120.2005            0   -32024.732            0            0    71082.494    6305.1689   -26904.532    88193.197      1.08886 
  998000     8661    301.00148   -409.47183   -31921.482    5179.6985            0   -31921.482            0            0    71314.747     6177.846   -26741.783    88842.201    1.0809058 
  999000     8661    299.64219   -145.96829   -31919.486    5156.3076            0   -31919.486            0            0     71259.38    6236.2451   -26763.179    88735.818    1.0822016 
 1000000     8661    299.78535   -21.507981   -31792.756    5158.7712            0   -31792.756            0            0    71349.859    6264.9291   -26633.984    88758.767    1.0819218 
Loop time of 26661 on 8 procs for 1000000 steps with 8661 atoms

Performance: 3.241 ns/day, 7.406 hours/ns, 37.508 timesteps/s
96.8% CPU use with 8 MPI tasks x no OpenMP threads

MPI task timing breakdown:
Section |  min time  |  avg time  |  max time  |%varavg| %total
---------------------------------------------------------------
Pair    | 20604      | 21494      | 22389      | 425.8 | 80.62
Bond    | 3.1966     | 3.5989     | 4.4013     |  21.0 |  0.01
Kspace  | 1605.1     | 2493.8     | 3379.4     |1245.4 |  9.35
Neigh   | 1149.6     | 1150.2     | 1150.8     |   1.0 |  4.31
Comm    | 573.34     | 585.08     | 606.34     |  39.3 |  2.19
Output  | 0.72003    | 0.73618    | 0.75398    |   1.1 |  0.00
Modify  | 792.29     | 838.8      | 848.68     |  61.4 |  3.15
Other   |            | 95.05      |            |       |  0.36

Nlocal:    1082.62 ave 1104 max 1062 min
Histogram: 1 1 0 0 2 1 2 0 0 1
Nghost:    14615.6 ave 14650 max 14577 min
Histogram: 1 1 1 0 0 1 1 1 1 1
Neighs:    905665 ave 949224 max 836798 min
Histogram: 1 0 0 1 2 0 0 1 1 2

Total # of neighbors = 7245319
Ave neighs/atom = 836.545
Ave special neighs/atom = 2
Neighbor list builds = 36991
Dangerous builds = 0
 write_data data.4
PPPM initialization ...
  using 12-bit tables for long-range coulomb (../kspace.cpp:332)
  G vector (1/distance) = 0.186656
  grid = 16 16 16
  stencil order = 5
  estimated absolute RMS force accuracy = 0.0304818
  estimated relative force accuracy = 9.1795e-05
  using double precision KISS FFT
  3d grid and FFT values/proc = 2197 512


# ----------------- Run Section -----------------

# The lines above define the system you want to simulate.
# What you do next is up to you.
# Typically a user would minimize and equilibrate
# the system using commands similar to the following:
#  ----   examples   ----
#
#  -- minimize --
# minimize 1.0e-5 1.0e-7 1000 10000
# (Note: Some fixes, for example "shake", interfere with the minimize command,
#        You can use the "unfix" command to disable them before minimization.)
#  -- declare time step for normal MD --
# timestep 1.0
#  -- run at constant pressure (Nose-Hoover)--
# fix   fxnpt all npt temp 300.0 300.0 100.0 iso 1.0 1.0 1000.0 drag 1.0
#  -- ALTERNATELY, run at constant volume (Nose-Hoover) --
# fix   fxnvt all nvt temp 300.0 300.0 500.0 tchain 1
#  -- ALTERNATELY, run at constant volume using Langevin dynamics. --
#  -- (This is good for sparse CG polymers in implicit solvent.)   --
# fix fxLAN all langevin 300.0 300.0 5000 48279
# fix fxNVE all nve  #(<--needed by fix langevin)
#  -- Now, finally run the simulation --
# run   50000
#  ---- (end of examples) ----

Total wall time: 7:24:21
