LAMMPS (15 Apr 2020)


# ----------------- Init Section -----------------

include "gen.in.init"

 # a variable named `cutoff` is required by GROMOS_54A7_ATB.lt
 variable cutoff equal 14.0 # Angstroms
 boundary p p p

        units real
        atom_style      full
        bond_style      harmonic
        angle_style     harmonic
        dihedral_style  harmonic
        improper_style  harmonic
        #pair_style      lj/cut/coul/cut ${cutoff}
        pair_style      lj/cut/coul/long   ${cutoff}
        pair_style      lj/cut/coul/long   14
        special_bonds lj 0.0 0.0 0.5 coul 0.0 0.0 1.0 angle yes dihedral yes
  	kspace_style pppm 1e-4

#package            gpu 4 newton off
# ----------------- Atom Definition Section -----------------

read_data "data.4"
  orthogonal box = (7.69646 7.69646 7.69646) to (52.3035 52.3035 52.3035)
  1 by 2 by 2 MPI processor grid
  reading atoms ...
  8661 atoms
  reading velocities ...
  8661 velocities
  scanning bonds ...
  1 = max bonds/atom
  scanning angles ...
  1 = max angles/atom
  reading bonds ...
  5774 bonds
  reading angles ...
  2887 angles
  2 = max # of 1-2 neighbors
  1 = max # of 1-3 neighbors
  1 = max # of 1-4 neighbors
  5774 = # of 1-3 neighbors before angle trim
  5774 = # of 1-3 neighbors after angle trim
  5774 = # of 1-4 neighbors before dihedral trim
  0 = # of 1-4 neighbors after dihedral trim
  2 = max # of special neighbors
  special bonds CPU = 0.00114036 secs
  read_data CPU = 0.0568125 secs

# ----------------- Settings Section -----------------

include "gen.in.settings"

       #     atom_id      mass
        mass 1            15.999400000
        mass 2           15.999400000
        mass 3           15.999400000
        mass 4           15.999400000
        mass 5           15.999400000
        mass 6            14.006700000
        mass 7           14.006700000
        mass 8           14.006700000
        mass 9           14.006700000
        mass 10           14.006700000
        mass 11           14.006700000
        mass 12            12.011000000
        mass 13          12.011000000
        mass 14          13.019000000
        mass 15          14.027000000
        mass 16          15.035000000
        mass 17          16.043000000
        mass 18         14.027000000
        mass 19          12.011000000
        mass 20            1.008000000
        mass 21             1.008000000
        mass 22           1.000000000
        mass 23            32.060000000
        mass 24         63.546000000
        mass 25         63.546000000
        mass 26           55.847000000
        mass 27         65.370000000
        mass 28         24.305000000
        mass 29         40.080000000
        mass 30           39.948000000
        mass 31            18.998400000
        mass 32           35.453000000
        mass 33           79.904000000
        mass 34         12.011000000
        mass 35         15.999400000
        mass 36          22.989800000
        mass 37          35.453000000
        mass 38         12.011000000
        mass 39        35.453000000
        mass 40          1.008000000
        mass 41        32.060000000
        mass 42        12.011000000
        mass 43        15.999400000
        mass 44         12.011000000
        mass 45        35.453000000
        mass 46         18.998400000
        mass 47         12.011000000
        mass 48        13.019000000
        mass 49         15.999400000
        mass 50        12.011000000
        mass 51        15.999400000
        mass 52        14.006700000
        mass 53         15.035000000
        mass 54            126.904470000
        mass 55        35.453000000
        mass 56            10.811000000
        mass 57           78.960000000
        mass 58          1.008000000
        mass 59        35.453000000
        mass 60        79.904000000
        mass 61        15.999400000
        mass 62         14.006700000
        mass 63         12.011000000
        mass 64         12.011000000
        mass 65         14.006700000
        mass 66         14.006700000
        mass 67         15.999400000
        mass 68           28.080000000
        mass 69            30.973800000
	## water spce
	mass 70 	15.9994
	mass 71		1.008
       #           atom_i       atom_j       epsilon                  sigma
        pair_coeff 1      1      3.057142739336137782E-01 2.760065475311210825E+00
        pair_coeff 1      2     3.550276087952778381E-01 2.692123523613648928E+00
        pair_coeff 2     2     4.122954462841457168E-01 2.625854035428913935E+00
        pair_coeff 1      3     2.204919358198741963E-01 2.914561468303898728E+00
        pair_coeff 2     3     1.353372555548385814E-01 3.161567388722811067E+00
        pair_coeff 3     3     2.030610329881481768E-01 2.954841833242532800E+00
        pair_coeff 1      4     2.779220672123761116E-01 2.804259278747785356E+00
        pair_coeff 2     4     3.227523716320707670E-01 2.735229449503375765E+00
        pair_coeff 3     4     2.030610329881481768E-01 2.954841833242532800E+00
        pair_coeff 4     4     2.526564247385237327E-01 2.849160707521389835E+00
        pair_coeff 1      5     1.928839685607480758E-01 3.016736863519489109E+00
        pair_coeff 2     5     1.183915722290306144E-01 3.272402037762298210E+00
        pair_coeff 3     5     1.776356026680076250E-01 3.058429331874637391E+00
        pair_coeff 4     5     1.776356026680076250E-01 3.058429331874637391E+00
        pair_coeff 5     5     1.553937103090970162E-01 3.165648283720967182E+00
        pair_coeff 1      6      1.694765154967038112E-01 3.064144913095461664E+00
        pair_coeff 2     6      9.205677104655286824E-02 3.392227199027124662E+00
        pair_coeff 3     6      1.381226695164660401E-01 3.170419479686534814E+00
        pair_coeff 4     6      1.381226695164660401E-01 3.170419479686534814E+00
        pair_coeff 5     6      1.208282223360083590E-01 3.281564455306036798E+00
        pair_coeff 6      6      1.529146624006174071E-01 3.136473222385702364E+00
        pair_coeff 1      7     1.295153862773237297E-01 3.204601223054668324E+00
        pair_coeff 2     7     7.949613606375653674E-02 3.476187697824344891E+00
        pair_coeff 3     7     1.192765986091082336E-01 3.248890049401691016E+00
        pair_coeff 4     7     1.192765986091082336E-01 3.248890049401691016E+00
        pair_coeff 5     7     1.043418826661619003E-01 3.362785957386363656E+00
        pair_coeff 6      7     8.113226830524199185E-02 3.485920696025768706E+00
        pair_coeff 7     7     7.006222102981565780E-02 3.572200188298519929E+00
        pair_coeff 1      8     9.498357859321329699E-02 3.374577969603924643E+00
        pair_coeff 2     8     3.498417334104661491E-02 3.985801065571819457E+00
        pair_coeff 3     8     8.747468933197311003E-02 3.421215940224123120E+00
        pair_coeff 4     8     8.747468933197311003E-02 3.421215940224123120E+00
        pair_coeff 5     8     7.652191525386708992E-02 3.541153054130216749E+00
        pair_coeff 6      8     1.529146624006174071E-01 3.136473222385702364E+00
        pair_coeff 7     8     5.138200694820247577E-02 3.761674922833770918E+00
        pair_coeff 8     8     1.529146624006174071E-01 3.136473222385702364E+00
        pair_coeff 1      9     1.582887664986303011E-01 3.099220950402574282E+00
        pair_coeff 2     9     9.715714619416199183E-02 3.361876561464794300E+00
        pair_coeff 3     9     1.457753106303604218E-01 3.142053380689358466E+00
        pair_coeff 4     9     1.457753106303604218E-01 3.142053380689358466E+00
        pair_coeff 5     9     1.275226702872701012E-01 3.252203929734818200E+00
        pair_coeff 6      9     9.915676463161025855E-02 3.371289499249087385E+00
        pair_coeff 7     9     8.562737496854166963E-02 3.454731772227725983E+00
        pair_coeff 8     9     6.279712962164887835E-02 3.637975809775669589E+00
        pair_coeff 9     9     1.046505125905587974E-01 3.341126193637144581E+00
        pair_coeff 1      10     1.356655582513865699E-01 3.179918240687398701E+00
        pair_coeff 2     10     4.996808371058240883E-02 3.755883439744826191E+00
        pair_coeff 3     10     1.249405711687586185E-01 3.223865938686866883E+00
        pair_coeff 4     10     1.249405711687586185E-01 3.223865938686866883E+00
        pair_coeff 5     10     1.092966648039405131E-01 3.336884579737899870E+00
        pair_coeff 6      10     1.529146624006174071E-01 3.136473222385702364E+00
        pair_coeff 7     10     7.338919800609181032E-02 3.544685827501989461E+00
        pair_coeff 8     10     1.529146624006174071E-01 3.136473222385702364E+00
        pair_coeff 9     10     8.969347936648916497E-02 3.428122195097171421E+00
        pair_coeff 10     10     1.529146624006174071E-01 3.136473222385702364E+00
        pair_coeff 1      11     1.468798483487794293E-01 3.138102939733744545E+00
        pair_coeff 2     11     5.409850998504587422E-02 3.706494309430008460E+00
        pair_coeff 3     11     1.352683199952084137E-01 3.181472734127216206E+00
        pair_coeff 4     11     1.352683199952084137E-01 3.181472734127216206E+00
        pair_coeff 5     11     1.183312681445888304E-01 3.293005202223091565E+00
        pair_coeff 6      11     1.529146624006174071E-01 3.136473222385702364E+00
        pair_coeff 7     11     7.945564380901472268E-02 3.498073904350435193E+00
        pair_coeff 8     11     1.529146624006174071E-01 3.136473222385702364E+00
        pair_coeff 9     11     9.710765810444493829E-02 3.383043060841536942E+00
        pair_coeff 10     11     1.529146624006174071E-01 3.136473222385702364E+00
        pair_coeff 11     11     1.529146624006174071E-01 3.136473222385702364E+00
        pair_coeff 1      12      1.423703976828447626E-01 3.143928959384971744E+00
        pair_coeff 2     12      1.653354984123153737E-01 3.066537799135407028E+00
        pair_coeff 3     12      1.294276342571315797E-01 3.194269134171567437E+00
        pair_coeff 4     12      1.294276342571315797E-01 3.194269134171567437E+00
        pair_coeff 5     12      1.015029251390483361E-01 3.367009660356621747E+00
        pair_coeff 6      12      1.006900148654086141E-01 3.351458328501519368E+00
        pair_coeff 7     12      1.006900148654086141E-01 3.351458328501519368E+00
        pair_coeff 8     12      1.006900148654086141E-01 3.351458328501519368E+00
        pair_coeff 9     12      1.006900148654086141E-01 3.351458328501519368E+00
        pair_coeff 10     12      1.006900148654086141E-01 3.351458328501519368E+00
        pair_coeff 11     12      1.006900148654086141E-01 3.351458328501519368E+00
        pair_coeff 12      12      6.630154972997068241E-02 3.581179283634555510E+00
        pair_coeff 1      13    2.260833879260638890E-02 4.280821861878790990E+00
        pair_coeff 2     13    2.625518382604388745E-02 4.175444871815595427E+00
        pair_coeff 3     13    2.055303526600580841E-02 4.349365815492619802E+00
        pair_coeff 4     13    2.055303526600580841E-02 4.349365815492619802E+00
        pair_coeff 5     13    1.611860721985387823E-02 4.584571963747981371E+00
        pair_coeff 6      13    1.598951752723829639E-02 4.563397031920107594E+00
        pair_coeff 7     13    1.598951752723829639E-02 4.563397031920107594E+00
        pair_coeff 8     13    1.598951752723829639E-02 4.563397031920107594E+00
        pair_coeff 9     13    1.598951752723829639E-02 4.563397031920107594E+00
        pair_coeff 10     13    1.598951752723829639E-02 4.563397031920107594E+00
        pair_coeff 11     13    1.598951752723829639E-02 4.563397031920107594E+00
        pair_coeff 12      13    1.052864867392752299E-02 4.876188605638604123E+00
        pair_coeff 13    13    1.671943466637953492E-03 6.639493148644640463E+00
        pair_coeff 1      14    8.326657659937299061E-02 3.721998163273249283E+00
        pair_coeff 2     14    9.669791731433396986E-02 3.630377213810442427E+00
        pair_coeff 3     14    7.569688781761180207E-02 3.781594305716371451E+00
        pair_coeff 4     14    7.569688781761180207E-02 3.781594305716371451E+00
        pair_coeff 5     14    5.936487660854102705E-02 3.986096356968000354E+00
        pair_coeff 6      14    5.888943890049144064E-02 3.967685626525647269E+00
        pair_coeff 7     14    5.888943890049144064E-02 3.967685626525647269E+00
        pair_coeff 8     14    5.888943890049144064E-02 3.967685626525647269E+00
        pair_coeff 9     14    5.888943890049144064E-02 3.967685626525647269E+00
        pair_coeff 10     14    5.888943890049144064E-02 3.967685626525647269E+00
        pair_coeff 11     14    5.888943890049144064E-02 3.967685626525647269E+00
        pair_coeff 12      14    3.877704325548127218E-02 4.239645007324696735E+00
        pair_coeff 13    14    6.157772581688245907E-03 5.772765628111153013E+00
        pair_coeff 14    14    2.267909407489697785E-02 5.019181773522026546E+00
        pair_coeff 1      15    1.731972553779473067E-01 3.351793382524915543E+00
        pair_coeff 2     15    2.011348918568659772E-01 3.269285418082499728E+00
        pair_coeff 3     15    1.574520503435884455E-01 3.405461854969619839E+00
        pair_coeff 4     15    1.574520503435884455E-01 3.405461854969619839E+00
        pair_coeff 5     15    1.234809225305322361E-01 3.589623316644059425E+00
        pair_coeff 6      15    1.224919962470180784E-01 3.573043790873992709E+00
        pair_coeff 7     15    1.224919962470180784E-01 3.573043790873992709E+00
        pair_coeff 8     15    1.224919962470180784E-01 3.573043790873992709E+00
        pair_coeff 9     15    1.224919962470180784E-01 3.573043790873992709E+00
        pair_coeff 10     15    1.224919962470180784E-01 3.573043790873992709E+00
        pair_coeff 11     15    1.224919962470180784E-01 3.573043790873992709E+00
        pair_coeff 12      15    8.065754277175206377E-02 3.817953007077415251E+00
        pair_coeff 13    15    1.280837226587758920E-02 5.198583336794016851E+00
        pair_coeff 14    15    4.717327178141728083E-02 4.519953937695086132E+00
        pair_coeff 15    15    9.812197803026967424E-02 4.070381293353582564E+00
        pair_coeff 1      16    2.517150719017874350E-01 3.216286733597559344E+00
        pair_coeff 2     16    2.923180488930291476E-01 3.137114409660223480E+00
        pair_coeff 3     16    2.288318835470794788E-01 3.267785491497223305E+00
        pair_coeff 4     16    2.288318835470794788E-01 3.267785491497223305E+00
        pair_coeff 5     16    1.794601723072659361E-01 3.444501654585188533E+00
        pair_coeff 6      16    1.780229229119614787E-01 3.428592407594721170E+00
        pair_coeff 7     16    1.780229229119614787E-01 3.428592407594721170E+00
        pair_coeff 8     16    1.780229229119614787E-01 3.428592407594721170E+00
        pair_coeff 9     16    1.780229229119614787E-01 3.428592407594721170E+00
        pair_coeff 10     16    1.780229229119614787E-01 3.428592407594721170E+00
        pair_coeff 11     16    1.780229229119614787E-01 3.428592407594721170E+00
        pair_coeff 12      16    1.172230999498745652E-01 3.663600408719620116E+00
        pair_coeff 13    16    1.861496210673063006E-02 4.988414472922134912E+00
        pair_coeff 14    16    6.855895881485152277E-02 4.337220773235620719E+00
        pair_coeff 15    16    1.426049200441300291E-01 3.905823498176049124E+00
        pair_coeff 16    16    2.072539060975635561E-01 3.747918462531858008E+00
        pair_coeff 1      17    3.038575184606040480E-01 3.199953592715625295E+00
        pair_coeff 2     17    3.528713488103634721E-01 3.121183326439165739E+00
        pair_coeff 3     17    2.762341076914582305E-01 3.251190826523163935E+00
        pair_coeff 4     17    2.762341076914582305E-01 3.251190826523163935E+00
        pair_coeff 5     17    2.166351113098009262E-01 3.427009578955020341E+00
        pair_coeff 6      17    2.149001375898457467E-01 3.411181123260212722E+00
        pair_coeff 7     17    2.149001375898457467E-01 3.411181123260212722E+00
        pair_coeff 8     17    2.149001375898457467E-01 3.411181123260212722E+00
        pair_coeff 9     17    2.149001375898457467E-01 3.411181123260212722E+00
        pair_coeff 10     17    2.149001375898457467E-01 3.411181123260212722E+00
        pair_coeff 11     17    2.149001375898457467E-01 3.411181123260212722E+00
        pair_coeff 12      17    1.415057111515590771E-01 3.644995692608442361E+00
        pair_coeff 13    17    2.247102705950117241E-02 4.963082006288297876E+00
        pair_coeff 14    17    8.276085709262456791E-02 4.315195237643504100E+00
        pair_coeff 15    17    1.721453419435647891E-01 3.885988710192354478E+00
        pair_coeff 16    17    2.501862805523388245E-01 3.728885557404626905E+00
        pair_coeff 17    17    3.020120399909287934E-01 3.709949306321822071E+00
        pair_coeff 1      18   1.871351497334000635E-01 3.303836737441132154E+00
        pair_coeff 2     18   2.173210425425619319E-01 3.222509276900889397E+00
        pair_coeff 3     18   1.701228633940000401E-01 3.356737334425898833E+00
        pair_coeff 4     18   1.701228633940000401E-01 3.356737334425898833E+00
        pair_coeff 5     18   1.334179394271841901E-01 3.538263858666045536E+00
        pair_coeff 6      18   1.323494301847202848E-01 3.521921548721142159E+00
        pair_coeff 7     18   1.323494301847202848E-01 3.521921548721142159E+00
        pair_coeff 8     18   1.323494301847202848E-01 3.521921548721142159E+00
        pair_coeff 9     18   1.323494301847202848E-01 3.521921548721142159E+00
        pair_coeff 10     18   1.323494301847202848E-01 3.521921548721142159E+00
        pair_coeff 11     18   1.323494301847202848E-01 3.521921548721142159E+00
        pair_coeff 12      18   8.714838644978782634E-02 3.763326663382849269E+00
        pair_coeff 13    18   1.383911457826323375E-02 5.124203269895830637E+00
        pair_coeff 14    18   5.096949867344095775E-02 4.455283535302380749E+00
        pair_coeff 15    18   1.060182565293115581E-01 4.012143267090165999E+00
        pair_coeff 16    18   1.540809235512614617E-01 3.849939924851243589E+00
        pair_coeff 17    18   1.859985845053877540E-01 3.830388928193292131E+00
        pair_coeff 18   18   1.145499809843573136E-01 3.954738496352121491E+00
        pair_coeff 1      19    1.916455257379301724E-01 3.213399033460031529E+00
        pair_coeff 2     19    2.225589661339335279E-01 3.134297793337560201E+00
        pair_coeff 3     19    1.742232052163001366E-01 3.264851553886924496E+00
        pair_coeff 4     19    1.742232052163001366E-01 3.264851553886924496E+00
        pair_coeff 5     19    1.366336104191038237E-01 3.441409054725308003E+00
        pair_coeff 6      19    1.355393477120732659E-01 3.425514091640016634E+00
        pair_coeff 7     19    1.355393477120732659E-01 3.425514091640016634E+00
        pair_coeff 8     19    1.355393477120732659E-01 3.425514091640016634E+00
        pair_coeff 9     19    1.355393477120732659E-01 3.425514091640016634E+00
        pair_coeff 10     19    1.355393477120732659E-01 3.425514091640016634E+00
        pair_coeff 11     19    1.355393477120732659E-01 3.425514091640016634E+00
        pair_coeff 12      19    8.924885764206048899E-02 3.660311093966183371E+00
        pair_coeff 13    19    1.417266821800791839E-02 4.983935691534572499E+00
        pair_coeff 14    19    5.219797768503835894E-02 4.333326657424202644E+00
        pair_coeff 15    19    1.085735338300921060E-01 3.902316706653073286E+00
        pair_coeff 16    19    1.577946187139902257E-01 3.744553443938634096E+00
        pair_coeff 17    19    1.904815667437584348E-01 3.725537627251366946E+00
        pair_coeff 18   19    1.173108919424925706E-01 3.846483307649072980E+00
        pair_coeff 19    19    1.201383470349284138E-01 3.741191446582464053E+00
        pair_coeff 1      20     9.300420140216696108E-02 2.559445618447809156E+00
        pair_coeff 2     20     1.080062726770026210E-01 2.496442138227286112E+00
        pair_coeff 3     20     8.454927400196994569E-02 2.600427123263571172E+00
        pair_coeff 4     20     8.454927400196994569E-02 2.600427123263571172E+00
        pair_coeff 5     20     6.630731279946860957E-02 2.741053705029336207E+00
        pair_coeff 6      20     6.577627494299018163E-02 2.728393499060382865E+00
        pair_coeff 7     20     6.577627494299018163E-02 2.728393499060382865E+00
        pair_coeff 8     20     6.577627494299018163E-02 2.728393499060382865E+00
        pair_coeff 9     20     6.577627494299018163E-02 2.728393499060382865E+00
        pair_coeff 10     20     6.577627494299018163E-02 2.728393499060382865E+00
        pair_coeff 11     20     6.577627494299018163E-02 2.728393499060382865E+00
        pair_coeff 12      20     4.331183156556572822E-02 2.915407359639444529E+00
        pair_coeff 13    20     6.877894405717501110E-03 3.969663348839890027E+00
        pair_coeff 14    20     2.533130481764387168E-02 3.451458661424102736E+00
        pair_coeff 15    20     5.268995854924014149E-02 3.108162818448523712E+00
        pair_coeff 16    20     7.657659860592054557E-02 2.982505691119483604E+00
        pair_coeff 17    20     9.243934043658488808E-02 2.967359751198966222E+00
        pair_coeff 18   20     5.693013587912872792E-02 3.063691980262590153E+00
        pair_coeff 19    20     5.830227959007599353E-02 2.979827888172235539E+00
        pair_coeff 20     20     2.829367882355780447E-02 2.373408142809749322E+00
        pair_coeff 1      21      0.000000000000000000E+00 0.000000000000000000E+00
        pair_coeff 2     21      0.000000000000000000E+00 0.000000000000000000E+00
        pair_coeff 3     21      0.000000000000000000E+00 0.000000000000000000E+00
        pair_coeff 4     21      0.000000000000000000E+00 0.000000000000000000E+00
        pair_coeff 5     21      0.000000000000000000E+00 0.000000000000000000E+00
        pair_coeff 6      21      0.000000000000000000E+00 0.000000000000000000E+00
        pair_coeff 7     21      0.000000000000000000E+00 0.000000000000000000E+00
        pair_coeff 8     21      0.000000000000000000E+00 0.000000000000000000E+00
        pair_coeff 9     21      0.000000000000000000E+00 0.000000000000000000E+00
        pair_coeff 10     21      0.000000000000000000E+00 0.000000000000000000E+00
        pair_coeff 11     21      0.000000000000000000E+00 0.000000000000000000E+00
        pair_coeff 12      21      0.000000000000000000E+00 0.000000000000000000E+00
        pair_coeff 13    21      0.000000000000000000E+00 0.000000000000000000E+00
        pair_coeff 14    21      0.000000000000000000E+00 0.000000000000000000E+00
        pair_coeff 15    21      0.000000000000000000E+00 0.000000000000000000E+00
        pair_coeff 16    21      0.000000000000000000E+00 0.000000000000000000E+00
        pair_coeff 17    21      0.000000000000000000E+00 0.000000000000000000E+00
        pair_coeff 18   21      0.000000000000000000E+00 0.000000000000000000E+00
        pair_coeff 19    21      0.000000000000000000E+00 0.000000000000000000E+00
        pair_coeff 20     21      0.000000000000000000E+00 0.000000000000000000E+00
        pair_coeff 21      21      0.000000000000000000E+00 0.000000000000000000E+00
        pair_coeff 1      22    0.000000000000000000E+00 0.000000000000000000E+00
        pair_coeff 2     22    0.000000000000000000E+00 0.000000000000000000E+00
        pair_coeff 3     22    0.000000000000000000E+00 0.000000000000000000E+00
        pair_coeff 4     22    0.000000000000000000E+00 0.000000000000000000E+00
        pair_coeff 5     22    0.000000000000000000E+00 0.000000000000000000E+00
        pair_coeff 6      22    0.000000000000000000E+00 0.000000000000000000E+00
        pair_coeff 7     22    0.000000000000000000E+00 0.000000000000000000E+00
        pair_coeff 8     22    0.000000000000000000E+00 0.000000000000000000E+00
        pair_coeff 9     22    0.000000000000000000E+00 0.000000000000000000E+00
        pair_coeff 10     22    0.000000000000000000E+00 0.000000000000000000E+00
        pair_coeff 11     22    0.000000000000000000E+00 0.000000000000000000E+00
        pair_coeff 12      22    0.000000000000000000E+00 0.000000000000000000E+00
        pair_coeff 13    22    0.000000000000000000E+00 0.000000000000000000E+00
        pair_coeff 14    22    0.000000000000000000E+00 0.000000000000000000E+00
        pair_coeff 15    22    0.000000000000000000E+00 0.000000000000000000E+00
        pair_coeff 16    22    0.000000000000000000E+00 0.000000000000000000E+00
        pair_coeff 17    22    0.000000000000000000E+00 0.000000000000000000E+00
        pair_coeff 18   22    0.000000000000000000E+00 0.000000000000000000E+00
        pair_coeff 19    22    0.000000000000000000E+00 0.000000000000000000E+00
        pair_coeff 20     22    0.000000000000000000E+00 0.000000000000000000E+00
        pair_coeff 21      22    0.000000000000000000E+00 0.000000000000000000E+00
        pair_coeff 22    22    0.000000000000000000E+00 0.000000000000000000E+00
        pair_coeff 1      23      3.731714874568097806E-01 3.021498329079459921E+00
        pair_coeff 2     23      4.333660288663451210E-01 2.947120929208018492E+00
        pair_coeff 3     23      3.392468067789179420E-01 3.069878160802191225E+00
        pair_coeff 4     23      3.392468067789179420E-01 3.069878160802191225E+00
        pair_coeff 5     23      2.660524812168876263E-01 3.235891839220214727E+00
        pair_coeff 6      23      2.639217367579247409E-01 3.220946106087509531E+00
        pair_coeff 7     23      2.639217367579247409E-01 3.220946106087509531E+00
        pair_coeff 8     23      2.639217367579247409E-01 3.220946106087509531E+00
        pair_coeff 9     23      2.639217367579247409E-01 3.220946106087509531E+00
        pair_coeff 10     23      2.639217367579247409E-01 3.220946106087509531E+00
        pair_coeff 11     23      2.639217367579247409E-01 3.220946106087509531E+00
        pair_coeff 12      23      1.737850588051431666E-01 3.441721286142719993E+00
        pair_coeff 13    23      2.759696924716207450E-02 4.686300458613273712E+00
        pair_coeff 14    23      1.016397168676915763E-01 4.074545090238809841E+00
        pair_coeff 15    23      2.114139996840987690E-01 3.669274586167817986E+00
        pair_coeff 16    23      3.072571214561132247E-01 3.520932774360979955E+00
        pair_coeff 17    23      3.709050306349177539E-01 3.503052561617904459E+00
        pair_coeff 18   23      2.284273523866607036E-01 3.616775497184223198E+00
        pair_coeff 19    23      2.339329629063890137E-01 3.517771551839822930E+00
        pair_coeff 20     23      1.135259918695059600E-01 2.801875799210098883E+00
        pair_coeff 21      23      0.000000000000000000E+00 0.000000000000000000E+00
        pair_coeff 22    23      0.000000000000000000E+00 0.000000000000000000E+00
        pair_coeff 23      23      4.555134350088204109E-01 3.307694050845144673E+00
        pair_coeff 1      24   2.223093289799977224E-01 2.528643669394098126E+00
        pair_coeff 2     24   8.188055467646591923E-02 2.986646248124879222E+00
        pair_coeff 3     24   2.047347528503646874E-01 2.563590501331129090E+00
        pair_coeff 4     24   2.047347528503646874E-01 2.563590501331129090E+00
        pair_coeff 5     24   1.790997547608397245E-01 2.653461953861128819E+00
        pair_coeff 6      24   5.583840364210079787E-01 2.182297559899140094E+00
        pair_coeff 7     24   5.583840364210079787E-01 2.182297559899140094E+00
        pair_coeff 8     24   5.583840364210079787E-01 2.182297559899140094E+00
        pair_coeff 9     24   1.469768559452463708E-01 2.726013321860754957E+00
        pair_coeff 10     24   5.583840364210079787E-01 2.182297559899140094E+00
        pair_coeff 11     24   5.583840364210079787E-01 2.182297559899140094E+00
        pair_coeff 12      24   3.676802214070164498E-01 2.331880049283297840E+00
        pair_coeff 13    24   5.838741162631456982E-02 3.175123618634094314E+00
        pair_coeff 14    24   2.150410044373349261E-01 2.760639115110234521E+00
        pair_coeff 15    24   4.472924585510560935E-01 2.486054939218036886E+00
        pair_coeff 16    24   6.500695009260647472E-01 2.385548453460561547E+00
        pair_coeff 17    24   7.847305442853571567E-01 2.373434017715752464E+00
        pair_coeff 18   24   4.832879194471943474E-01 2.450485069368524726E+00
        pair_coeff 19    24   4.949362401301840020E-01 2.383406620605556636E+00
        pair_coeff 20     24   2.401890134458197767E-01 1.898363561004745348E+00
        pair_coeff 21      24   0.000000000000000000E+00 0.000000000000000000E+00
        pair_coeff 22    24   0.000000000000000000E+00 0.000000000000000000E+00
        pair_coeff 23      24   9.637380899683938296E-01 2.241072162744267793E+00
        pair_coeff 24   24   2.038998270244088307E+00 1.518400541713947227E+00
        pair_coeff 1      25   1.222674138853568487E-01 2.793586526663335956E+00
        pair_coeff 2     25   4.503330433195999044E-02 3.299577089353393333E+00
        pair_coeff 3     25   1.126016118096603430E-01 2.832194971194489597E+00
        pair_coeff 4     25   1.126016118096603430E-01 2.832194971194489597E+00
        pair_coeff 5     25   9.850267617010251275E-02 2.931482855034457380E+00
        pair_coeff 6      25   5.583840364210079787E-01 2.182297559899140094E+00
        pair_coeff 7     25   5.583840364210079787E-01 2.182297559899140094E+00
        pair_coeff 8     25   5.583840364210079787E-01 2.182297559899140094E+00
        pair_coeff 9     25   8.083547442600935717E-02 3.011635913604119530E+00
        pair_coeff 10     25   5.583840364210079787E-01 2.182297559899140094E+00
        pair_coeff 11     25   5.583840364210079787E-01 2.182297559899140094E+00
        pair_coeff 12      25   3.676802214070164498E-01 2.331880049283297840E+00
        pair_coeff 13    25   5.838741162631456982E-02 3.175123618634094314E+00
        pair_coeff 14    25   2.150410044373349261E-01 2.760639115110234521E+00
        pair_coeff 15    25   4.472924585510560935E-01 2.486054939218036886E+00
        pair_coeff 16    25   6.500695009260647472E-01 2.385548453460561547E+00
        pair_coeff 17    25   7.847305442853571567E-01 2.373434017715752464E+00
        pair_coeff 18   25   4.832879194471943474E-01 2.450485069368524726E+00
        pair_coeff 19    25   4.949362401301840020E-01 2.383406620605556636E+00
        pair_coeff 20     25   2.401890134458197767E-01 1.898363561004745348E+00
        pair_coeff 21      25   0.000000000000000000E+00 0.000000000000000000E+00
        pair_coeff 22    25   0.000000000000000000E+00 0.000000000000000000E+00
        pair_coeff 23      25   9.637380899683938296E-01 2.241072162744267793E+00
        pair_coeff 24   25   2.038998270244088307E+00 1.518400541713947227E+00
        pair_coeff 25   25   2.038998270244088307E+00 1.518400541713947227E+00
        pair_coeff 1      26     0.000000000000000000E+00 0.000000000000000000E+00
        pair_coeff 2     26     0.000000000000000000E+00 0.000000000000000000E+00
        pair_coeff 3     26     0.000000000000000000E+00 0.000000000000000000E+00
        pair_coeff 4     26     0.000000000000000000E+00 0.000000000000000000E+00
        pair_coeff 5     26     0.000000000000000000E+00 0.000000000000000000E+00
        pair_coeff 6      26     0.000000000000000000E+00 0.000000000000000000E+00
        pair_coeff 7     26     0.000000000000000000E+00 0.000000000000000000E+00
        pair_coeff 8     26     0.000000000000000000E+00 0.000000000000000000E+00
        pair_coeff 9     26     0.000000000000000000E+00 0.000000000000000000E+00
        pair_coeff 10     26     0.000000000000000000E+00 0.000000000000000000E+00
        pair_coeff 11     26     0.000000000000000000E+00 0.000000000000000000E+00
        pair_coeff 12      26     0.000000000000000000E+00 0.000000000000000000E+00
        pair_coeff 13    26     0.000000000000000000E+00 0.000000000000000000E+00
        pair_coeff 14    26     0.000000000000000000E+00 0.000000000000000000E+00
        pair_coeff 15    26     0.000000000000000000E+00 0.000000000000000000E+00
        pair_coeff 16    26     0.000000000000000000E+00 0.000000000000000000E+00
        pair_coeff 17    26     0.000000000000000000E+00 0.000000000000000000E+00
        pair_coeff 18   26     0.000000000000000000E+00 0.000000000000000000E+00
        pair_coeff 19    26     0.000000000000000000E+00 0.000000000000000000E+00
        pair_coeff 20     26     0.000000000000000000E+00 0.000000000000000000E+00
        pair_coeff 21      26     0.000000000000000000E+00 0.000000000000000000E+00
        pair_coeff 22    26     0.000000000000000000E+00 0.000000000000000000E+00
        pair_coeff 23      26     0.000000000000000000E+00 0.000000000000000000E+00
        pair_coeff 24   26     0.000000000000000000E+00 0.000000000000000000E+00
        pair_coeff 25   26     0.000000000000000000E+00 0.000000000000000000E+00
        pair_coeff 26     26     0.000000000000000000E+00 0.000000000000000000E+00
        pair_coeff 1      27   5.148167869545027253E-01 2.198391984374735042E+00
        pair_coeff 2     27   1.896163524310913173E-01 2.596577466216851260E+00
        pair_coeff 3     27   4.741181493550025716E-01 2.228774610499382636E+00
        pair_coeff 4     27   4.741181493550025716E-01 2.228774610499382636E+00
        pair_coeff 5     27   4.147534460805777923E-01 2.306908466707524141E+00
        pair_coeff 6      27   4.114317946416216065E-01 2.296253463382908144E+00
        pair_coeff 7     27   4.114317946416216065E-01 2.296253463382908144E+00
        pair_coeff 8     27   4.114317946416216065E-01 2.296253463382908144E+00
        pair_coeff 9     27   3.403642711782671748E-01 2.369984315549452436E+00
        pair_coeff 10     27   4.114317946416216065E-01 2.296253463382908144E+00
        pair_coeff 11     27   4.114317946416216065E-01 2.296253463382908144E+00
        pair_coeff 12      27   2.709162932331031781E-01 2.453646898458591963E+00
        pair_coeff 13    27   4.302135444964862165E-02 3.340923226938115054E+00
        pair_coeff 14    27   1.584477717956855047E-01 2.904795040652100369E+00
        pair_coeff 15    27   3.295766478763905716E-01 2.615872541507785698E+00
        pair_coeff 16    27   4.789880153488779158E-01 2.510117776321816319E+00
        pair_coeff 17    27   5.782097536577677221E-01 2.497370745143705939E+00
        pair_coeff 18   27   3.560990341007065352E-01 2.578445272956105150E+00
        pair_coeff 19    27   3.646818179386565606E-01 2.507864100562072096E+00
        pair_coeff 20     27   1.769774750163259913E-01 1.997492909224773072E+00
        pair_coeff 21      27   0.000000000000000000E+00 0.000000000000000000E+00
        pair_coeff 22    27   0.000000000000000000E+00 0.000000000000000000E+00
        pair_coeff 23      27   7.101071414248384395E-01 2.358097177009347067E+00
        pair_coeff 24   27   1.502386642309327724E+00 1.597688860942628741E+00
        pair_coeff 25   27   1.502386642309327724E+00 1.597688860942628741E+00
        pair_coeff 26     27   0.000000000000000000E+00 0.000000000000000000E+00
        pair_coeff 27   27   1.106997321149905122E+00 1.681117482676084629E+00
        pair_coeff 1      28   1.337556733810085774E-01 2.357481108494590138E+00
        pair_coeff 2     28   4.926463850082780926E-02 2.784481733402069281E+00
        pair_coeff 3     28   1.231816714918823885E-01 2.390062407746226469E+00
        pair_coeff 4     28   1.231816714918823885E-01 2.390062407746226469E+00
        pair_coeff 5     28   1.077579983274792180E-01 2.473850508891853206E+00
        pair_coeff 6      28   1.068949928152020112E-01 2.462424444192170547E+00
        pair_coeff 7     28   1.068949928152020112E-01 2.462424444192170547E+00
        pair_coeff 8     28   1.068949928152020112E-01 2.462424444192170547E+00
        pair_coeff 9     28   8.843078438758973647E-02 2.541490912925349122E+00
        pair_coeff 10     28   1.068949928152020112E-01 2.462424444192170547E+00
        pair_coeff 11     28   1.068949928152020112E-01 2.462424444192170547E+00
        pair_coeff 12      28   7.038735361689542336E-02 2.631207833337182223E+00
        pair_coeff 13    28   1.117747202498341370E-02 3.582692917558796708E+00
        pair_coeff 14    28   4.116666151782900213E-02 3.115003821456256539E+00
        pair_coeff 15    28   8.562802842568927042E-02 2.805173118654866293E+00
        pair_coeff 16    28   1.244469220077783211E-01 2.691765290191502125E+00
        pair_coeff 17    28   1.502259384614757498E-01 2.678095805674920893E+00
        pair_coeff 18   28   9.251886749504166507E-02 2.765037383453741171E+00
        pair_coeff 19    28   9.474877930215237776E-02 2.689348524634663118E+00
        pair_coeff 20     28   4.598090416614816073E-02 2.142043744391038285E+00
        pair_coeff 21      28   0.000000000000000000E+00 0.000000000000000000E+00
        pair_coeff 22    28   0.000000000000000000E+00 0.000000000000000000E+00
        pair_coeff 23      28   1.844944867392919463E-01 2.528743548150760745E+00
        pair_coeff 24   28   3.903383535907812840E-01 1.713307423651182493E+00
        pair_coeff 25   28   3.903383535907812840E-01 1.713307423651182493E+00
        pair_coeff 26     28   0.000000000000000000E+00 0.000000000000000000E+00
        pair_coeff 27   28   2.876113908353647441E-01 1.802773452022052636E+00
        pair_coeff 28   28   7.472494337414144205E-02 1.933233193281657103E+00
        pair_coeff 1      29   1.703146428752259911E-01 2.843803441534021204E+00
        pair_coeff 2     29   6.272996950749848422E-02 3.358889582531555007E+00
        pair_coeff 3     29   1.568504861035088516E-01 2.883105903219756350E+00
        pair_coeff 4     29   1.568504861035088516E-01 2.883105903219756350E+00
        pair_coeff 5     29   1.372111144012202466E-01 2.984178564858046556E+00
        pair_coeff 6      29   1.361122266164445094E-01 2.970395429120896935E+00
        pair_coeff 7     29   1.361122266164445094E-01 2.970395429120896935E+00
        pair_coeff 8     29   1.361122266164445094E-01 2.970395429120896935E+00
        pair_coeff 9     29   1.126012608021971506E-01 3.065772437692955599E+00
        pair_coeff 10     29   1.361122266164445094E-01 2.970395429120896935E+00
        pair_coeff 11     29   1.361122266164445094E-01 2.970395429120896935E+00
        pair_coeff 12      29   8.962608232733035307E-02 3.173996968575379718E+00
        pair_coeff 13    29   1.423257128510838597E-02 4.321762924080988277E+00
        pair_coeff 14    29   5.241860085293292143E-02 3.757594729361648955E+00
        pair_coeff 15    29   1.090324373747397629E-01 3.383849372190097071E+00
        pair_coeff 16    29   1.584615631091823018E-01 3.247046760402909182E+00
        pair_coeff 17    29   1.912866677944946026E-01 3.230557412101377146E+00
        pair_coeff 18   29   1.178067253398141917E-01 3.335434077797200025E+00
        pair_coeff 19    29   1.206461311270324160E-01 3.244131442785662678E+00
        pair_coeff 20     29   5.854870357409030363E-02 2.583923727009426852E+00
        pair_coeff 21      29   0.000000000000000000E+00 0.000000000000000000E+00
        pair_coeff 22    29   0.000000000000000000E+00 0.000000000000000000E+00
        pair_coeff 23      29   2.349217182881164212E-01 3.050395432258705242E+00
        pair_coeff 24   29   4.970281679412999476E-01 2.066743835286263042E+00
        pair_coeff 25   29   4.970281679412999476E-01 2.066743835286263042E+00
        pair_coeff 26     29   0.000000000000000000E+00 0.000000000000000000E+00
        pair_coeff 27   29   3.662232044351344529E-01 2.174665717868782711E+00
        pair_coeff 28   29   9.514925029300028148E-02 2.332037863859216742E+00
        pair_coeff 29   29   1.211560614504652439E-01 2.813111536348800179E+00
        pair_coeff 1      30     2.698242160009388657E-01 3.067797545829641592E+00
        pair_coeff 2     30     3.133482940435941000E-01 2.992280441419951309E+00
        pair_coeff 3     30     2.452947418190353224E-01 3.116918714488987607E+00
        pair_coeff 4     30     2.452947418190353224E-01 3.116918714488987607E+00
        pair_coeff 5     30     1.923710802470132430E-01 3.285476264338809127E+00
        pair_coeff 6      30     1.908304307803131428E-01 3.270301513790756509E+00
        pair_coeff 7     30     1.908304307803131428E-01 3.270301513790756509E+00
        pair_coeff 8     30     1.908304307803131428E-01 3.270301513790756509E+00
        pair_coeff 9     30     1.908304307803131428E-01 3.270301513790756509E+00
        pair_coeff 10     30     1.908304307803131428E-01 3.270301513790756509E+00
        pair_coeff 11     30     1.908304307803131428E-01 3.270301513790756509E+00
        pair_coeff 12      30     1.256564845410435005E-01 3.494459690227617266E+00
        pair_coeff 13    30     1.995417881967565324E-02 4.758109878000214898E+00
        pair_coeff 14    30     7.349129780864194217E-02 4.136980420576664486E+00
        pair_coeff 15    30     1.528643495920544437E-01 3.725499849556486165E+00
        pair_coeff 16    30     2.221643793651205678E-01 3.574884956996347896E+00
        pair_coeff 17    30     2.681854387748578428E-01 3.556730761031980492E+00
        pair_coeff 18   30     1.651659715241092508E-01 3.672196303169541487E+00
        pair_coeff 19    30     1.691468411565035523E-01 3.571675294227750541E+00
        pair_coeff 20     30     8.208575087201354370E-02 2.844809681941795620E+00
        pair_coeff 21      30     0.000000000000000000E+00 0.000000000000000000E+00
        pair_coeff 22    30     0.000000000000000000E+00 0.000000000000000000E+00
        pair_coeff 23      30     3.293621287006147091E-01 3.358378720212484847E+00
        pair_coeff 24   30     6.968374682861073754E-01 2.275412703269175108E+00
        pair_coeff 25   30     6.968374682861073754E-01 2.275412703269175108E+00
        pair_coeff 26     30     0.000000000000000000E+00 0.000000000000000000E+00
        pair_coeff 27   30     5.134478628509925313E-01 2.394230922729341682E+00
        pair_coeff 28   30     1.334000102210023686E-01 2.567492153276457856E+00
        pair_coeff 29   30     1.698617675500217472E-01 3.097137446951440776E+00
        pair_coeff 30     30     2.381475572067369983E-01 3.409840044152281813E+00
        pair_coeff 1      31      1.825200170718821457E-01 2.848641691863192271E+00
        pair_coeff 2     31      2.119614644894694810E-01 2.778519342243783719E+00
        pair_coeff 3     31      1.057395499456308119E-01 3.119966996841143647E+00
        pair_coeff 4     31      1.659272882471655997E-01 2.894253765967063963E+00
        pair_coeff 5     31      9.249981842420902656E-02 3.229343266454477224E+00
        pair_coeff 6      31      7.192433081344887236E-02 3.347591749745056244E+00
        pair_coeff 7     31      6.211065545356941192E-02 3.430447483334676306E+00
        pair_coeff 8     31      4.555051328896060625E-02 3.612403446600987778E+00
        pair_coeff 9     31      7.590927472598106573E-02 3.317640470558243848E+00
        pair_coeff 10     31      6.506004412035899798E-02 3.404024952464428821E+00
        pair_coeff 11     31      7.043799131579189798E-02 3.359262692221449242E+00
        pair_coeff 12      31      8.499913033581890653E-02 3.244824150032262100E+00
        pair_coeff 13    31      1.349781392048931411E-02 4.418202300006069727E+00
        pair_coeff 14    31      4.971248737222838665E-02 3.841444791719262675E+00
        pair_coeff 15    31      1.034036311148842646E-01 3.459359372949309286E+00
        pair_coeff 16    31      1.502809752047785663E-01 3.319504035055336644E+00
        pair_coeff 17    31      1.814114818495274339E-01 3.302646729860391872E+00
        pair_coeff 18   31      1.117249459261637351E-01 3.409863699817805127E+00
        pair_coeff 19    31      1.144177672156473091E-01 3.316523662640645131E+00
        pair_coeff 20     31      5.552612316481649046E-02 2.641583528356301613E+00
        pair_coeff 21      31      0.000000000000000000E+00 0.000000000000000000E+00
        pair_coeff 22    31      0.000000000000000000E+00 0.000000000000000000E+00
        pair_coeff 23      31      2.227938701879095817E-01 3.118464467275081642E+00
        pair_coeff 24   31      1.066111026131294215E-01 2.706851401515291577E+00
        pair_coeff 25   31      5.863480344158913254E-02 2.990466271099721407E+00
        pair_coeff 26     31      0.000000000000000000E+00 0.000000000000000000E+00
        pair_coeff 27   31      2.468865591596759723E-01 2.353325024008075417E+00
        pair_coeff 28   31      6.414413594489304371E-02 2.523626052896363436E+00
        pair_coeff 29   31      8.167642784672754508E-02 3.044222254215389167E+00
        pair_coeff 30     31      1.610926433928725754E-01 3.166249521765611696E+00
        pair_coeff 31      31      1.089695819670959825E-01 2.940060502624928240E+00
        pair_coeff 1      32     3.028875918701723902E-01 3.094659625059138719E+00
        pair_coeff 2     32     3.517449679133345941E-01 3.018481281955716966E+00
        pair_coeff 3     32     2.468521531134249269E-01 3.201992541656678348E+00
        pair_coeff 4     32     2.753523562456112184E-01 3.144210905779225573E+00
        pair_coeff 5     32     2.159436024870309834E-01 3.314244369926244271E+00
        pair_coeff 6      32     1.679095090878598429E-01 3.435601666955987898E+00
        pair_coeff 7     32     1.449991894034274031E-01 3.520635720603371155E+00
        pair_coeff 8     32     1.063390404686152813E-01 3.707375400182857383E+00
        pair_coeff 9     32     1.772124802594848836E-01 3.404862953159864425E+00
        pair_coeff 10     32     1.518846257717465786E-01 3.493518527740791413E+00
        pair_coeff 11     32     1.644396049182014208E-01 3.447579444541888805E+00
        pair_coeff 12      32     1.410540186851716171E-01 3.525057684932574986E+00
        pair_coeff 13    32     2.239929855079176788E-02 4.799772576602748586E+00
        pair_coeff 14    32     8.249668078937649751E-02 4.173204419770964790E+00
        pair_coeff 15    32     1.715958464253498628E-01 3.758120865328633986E+00
        pair_coeff 16    32     2.493876749186909880E-01 3.606187166974876845E+00
        pair_coeff 17    32     3.010480042491057717E-01 3.587874010243685685E+00
        pair_coeff 18   32     1.854048688263800759E-01 3.704350585376364968E+00
        pair_coeff 19    32     1.898735411878733903E-01 3.602949399934630925E+00
        pair_coeff 20     32     9.214426998795607893E-02 2.869719247168172060E+00
        pair_coeff 21      32     0.000000000000000000E+00 0.000000000000000000E+00
        pair_coeff 22    32     0.000000000000000000E+00 0.000000000000000000E+00
        pair_coeff 23      32     3.697210854307304562E-01 3.387785170252723521E+00
        pair_coeff 24   32     2.488868189752940496E-01 2.778015923822349631E+00
        pair_coeff 25   32     1.368847085539993957E-01 3.069087174906648396E+00
        pair_coeff 26     32     0.000000000000000000E+00 0.000000000000000000E+00
        pair_coeff 27   32     5.763640826414281326E-01 2.415195155140145822E+00
        pair_coeff 28   32     1.497464106452001675E-01 2.589973486093279487E+00
        pair_coeff 29   32     1.906760723205734864E-01 3.124256430600719447E+00
        pair_coeff 30     32     2.673293790349109966E-01 3.439697096991523484E+00
        pair_coeff 31      32     1.808324084043584357E-01 3.193973660742658982E+00
        pair_coeff 32     32     3.000870457518571288E-01 3.469815582505817453E+00
        pair_coeff 1      33     4.619134934213758870E-01 3.174341374980300667E+00
        pair_coeff 2     33     5.364225913614864005E-01 3.096201580725539859E+00
        pair_coeff 3     33     3.764576148503470665E-01 3.284437915256962270E+00
        pair_coeff 4     33     4.199213576557962457E-01 3.225168509344078061E+00
        pair_coeff 5     33     3.293210632726623621E-01 3.399580020064839836E+00
        pair_coeff 6      33     2.560674983169540231E-01 3.524062042578035125E+00
        pair_coeff 7     33     2.211285107688185092E-01 3.611285565510714335E+00
        pair_coeff 8     33     1.621705180019040737E-01 3.802833445749207453E+00
        pair_coeff 9     33     2.702548339108319375E-01 3.492531863870627973E+00
        pair_coeff 10     33     2.316290266433154443E-01 3.583470155189018680E+00
        pair_coeff 11     33     2.507757808618153450E-01 3.536348225738003670E+00
        pair_coeff 12      33     2.151119962679723108E-01 3.615821387226038297E+00
        pair_coeff 13    33     3.415966358971698341E-02 4.923357824889950329E+00
        pair_coeff 14    33     1.258101389489161837E-01 4.280656699257024300E+00
        pair_coeff 15    33     2.616892834385430300E-01 3.854885512574417916E+00
        pair_coeff 16    33     3.803243686103310317E-01 3.699039803071263677E+00
        pair_coeff 17    33     4.591080620755257913E-01 3.680255116494558720E+00
        pair_coeff 18   33     2.827484946746637862E-01 3.799730747567426459E+00
        pair_coeff 19    33     2.895633663196458540E-01 3.695718669530379863E+00
        pair_coeff 20     33     1.405230283158743487E-01 2.943609199247290142E+00
        pair_coeff 21      33     0.000000000000000000E+00 0.000000000000000000E+00
        pair_coeff 22    33     0.000000000000000000E+00 0.000000000000000000E+00
        pair_coeff 23      33     5.638367590708479593E-01 3.475014359704387434E+00
        pair_coeff 24   33     3.795605468998184961E-01 2.849544685281790724E+00
        pair_coeff 25   33     2.087536618246373654E-01 3.148110481630561619E+00
        pair_coeff 26     33     0.000000000000000000E+00 0.000000000000000000E+00
        pair_coeff 27   33     8.789740948174059598E-01 2.477381954232469763E+00
        pair_coeff 28   33     2.283681785752544047E-01 2.656660503285802832E+00
        pair_coeff 29   33     2.907872525699738975E-01 3.204700243411942928E+00
        pair_coeff 30     33     4.076860547562866088E-01 3.528262922346804054E+00
        pair_coeff 31      33     2.757753428396018114E-01 3.276212563021035251E+00
        pair_coeff 32     33     4.576425689077261438E-01 3.559156903043612541E+00
        pair_coeff 33     33     6.979198997135206417E-01 3.650798597006346569E+00
        pair_coeff 1      34   2.726298193589453134E-01 3.152721713066568121E+00
        pair_coeff 2     34   3.166064561130476629E-01 3.075114109819085950E+00
        pair_coeff 3     34   2.478452903263138885E-01 3.203202676262477233E+00
        pair_coeff 4     34   2.478452903263138885E-01 3.203202676262477233E+00
        pair_coeff 5     34   1.943713341779741421E-01 3.376426312885838499E+00
        pair_coeff 6      34   1.928146652027906693E-01 3.360831487989961452E+00
        pair_coeff 7     34   1.928146652027906693E-01 3.360831487989961452E+00
        pair_coeff 8     34   1.928146652027906693E-01 3.360831487989961452E+00
        pair_coeff 9     34   1.928146652027906693E-01 3.360831487989961452E+00
        pair_coeff 10     34   1.928146652027906693E-01 3.360831487989961452E+00
        pair_coeff 11     34   1.928146652027906693E-01 3.360831487989961452E+00
        pair_coeff 12      34   1.269630472365963769E-01 3.591194913038851411E+00
        pair_coeff 13    34   2.016166023825427880E-02 4.889826040157090326E+00
        pair_coeff 14    34   7.425545246819055534E-02 4.251502194534839241E+00
        pair_coeff 15    34   1.544538167603142498E-01 3.828630831160853454E+00
        pair_coeff 16    34   2.244744208358758208E-01 3.673846548628572073E+00
        pair_coeff 17    34   2.709740023024271305E-01 3.655189799952984320E+00
        pair_coeff 18   34   1.668833496423683671E-01 3.773851711754483418E+00
        pair_coeff 19    34   1.709056119317078348E-01 3.670548034515104696E+00
        pair_coeff 20     34   8.293926973590307061E-02 2.923560997691061925E+00
        pair_coeff 21      34   0.000000000000000000E+00 0.000000000000000000E+00
        pair_coeff 22    34   0.000000000000000000E+00 0.000000000000000000E+00
        pair_coeff 23      34   3.327868009112045500E-01 3.451346887707100741E+00
        pair_coeff 24   34   7.040831098003642596E-01 2.338401712830169732E+00
        pair_coeff 25   34   7.040831098003642596E-01 2.338401712830169732E+00
        pair_coeff 26     34   0.000000000000000000E+00 0.000000000000000000E+00
        pair_coeff 27   34   5.187866388494037917E-01 2.460509112293086442E+00
        pair_coeff 28   34   1.347870892689141398E-01 2.638566639042558393E+00
        pair_coeff 29   34   1.716279720534513720E-01 3.182873814678249147E+00
        pair_coeff 30     34   2.406237900523386375E-01 3.504232787426495133E+00
        pair_coeff 31      34   1.627676674805978718E-01 3.253899081387234382E+00
        pair_coeff 32     34   2.701090413448035132E-01 3.534916356784718605E+00
        pair_coeff 33     34   4.119251307784054794E-01 3.625933901607006682E+00
        pair_coeff 34   34   2.431257705023985027E-01 3.601238553560273559E+00
        pair_coeff 1      35   1.774056427875315700E-01 3.022113465134438570E+00
        pair_coeff 2     35   1.088910246333028992E-01 3.278234300527326894E+00
        pair_coeff 3     35   1.633809098206280841E-01 3.063880240200058669E+00
        pair_coeff 4     35   1.633809098206280841E-01 3.063880240200058669E+00
        pair_coeff 5     35   1.429238586712428538E-01 3.171290283817308264E+00
        pair_coeff 6      35   1.111321413093139809E-01 3.287413047857584036E+00
        pair_coeff 7     35   9.596877802844315519E-02 3.368779307561466041E+00
        pair_coeff 8     35   7.038127462972523785E-02 3.547464300384358893E+00
        pair_coeff 9     35   1.172893810776735740E-01 3.258000194272241412E+00
        pair_coeff 10     35   1.005259546387323316E-01 3.342831766990879583E+00
        pair_coeff 11     35   1.088355597600791647E-01 3.298874185130554082E+00
        pair_coeff 12      35   9.335763782481623640E-02 3.373010538257620983E+00
        pair_coeff 13    35   1.482514019187304057E-02 4.592742851080654276E+00
        pair_coeff 14    35   5.460103383565441393E-02 3.993200606718578349E+00
        pair_coeff 15    35   1.135719707396375816E-01 3.596020949382504384E+00
        pair_coeff 16    35   1.650590635421556873E-01 3.450640643166755339E+00
        pair_coeff 17    35   1.992508317774452642E-01 3.433117392155260461E+00
        pair_coeff 18   35   1.227115735956721548E-01 3.544569955630175073E+00
        pair_coeff 19    35   1.256691972052001172E-01 3.447542531497872709E+00
        pair_coeff 20     35   6.098636157519143897E-02 2.745938968293540228E+00
        pair_coeff 21      35   0.000000000000000000E+00 0.000000000000000000E+00
        pair_coeff 22    35   0.000000000000000000E+00 0.000000000000000000E+00
        pair_coeff 23      35   2.447026147257768958E-01 3.241659031413521852E+00
        pair_coeff 24   35   1.647275683589491391E-01 2.658191106078167110E+00
        pair_coeff 25   35   9.059814930521523091E-02 2.936707512061449421E+00
        pair_coeff 26     35   0.000000000000000000E+00 0.000000000000000000E+00
        pair_coeff 27   35   3.814707995138282293E-01 2.311019971405739337E+00
        pair_coeff 28   35   9.911076125937028081E-02 2.478259547281012942E+00
        pair_coeff 29   35   1.262003583272166274E-01 2.989497139204101650E+00
        pair_coeff 30     35   1.769339121317631824E-01 3.291331828740973631E+00
        pair_coeff 31      35   8.507700182510755105E-02 3.235098787405478848E+00
        pair_coeff 32     35   1.986148143410966516E-01 3.320151206497628849E+00
        pair_coeff 33     35   3.028940940468037857E-01 3.405638946730622507E+00
        pair_coeff 34   35   1.787736520386526418E-01 3.382443973685540506E+00
        pair_coeff 35   35   1.314546730163348442E-01 3.176942339410103067E+00
        pair_coeff 1      36    3.493138043396110115E-02 2.995467182793318806E+00
        pair_coeff 2     36    1.286586045970535865E-02 3.538023538529870837E+00
        pair_coeff 3     36    3.216989396118666994E-02 3.036865695947625898E+00
        pair_coeff 4     36    3.216989396118666994E-02 3.036865695947625898E+00
        pair_coeff 5     36    2.814187644704253116E-02 3.143328694266439349E+00
        pair_coeff 6      36    2.791649554839393046E-02 3.128810485949500286E+00
        pair_coeff 7     36    2.791649554839393046E-02 3.128810485949500286E+00
        pair_coeff 8     36    2.791649554839393046E-02 3.128810485949500286E+00
        pair_coeff 9     36    2.309441755578705083E-02 3.229274074606136136E+00
        pair_coeff 10     36    2.791649554839393046E-02 3.128810485949500286E+00
        pair_coeff 11     36    2.791649554839393046E-02 3.128810485949500286E+00
        pair_coeff 12      36    1.838222906573640236E-02 3.343270360670348218E+00
        pair_coeff 13    36    2.919087599988792053E-03 4.552248169414355949E+00
        pair_coeff 14    36    1.075100800082823098E-02 3.957992150107363383E+00
        pair_coeff 15    36    2.236245507304574984E-02 3.564314466278117433E+00
        pair_coeff 16    36    3.250032440946476475E-02 3.420215993034873669E+00
        pair_coeff 17    36    3.923272392714612089E-02 3.402847246312967755E+00
        pair_coeff 18   36    2.416205366169842800E-02 3.513317121179974301E+00
        pair_coeff 19    36    2.474441324091778208E-02 3.417145197732238238E+00
        pair_coeff 20     36    1.200828656852534135E-02 2.721727744630110912E+00
        pair_coeff 21      36    0.000000000000000000E+00 0.000000000000000000E+00
        pair_coeff 22    36    0.000000000000000000E+00 0.000000000000000000E+00
        pair_coeff 23      36    4.818223363057468761E-02 3.213076993445320717E+00
        pair_coeff 24   36    1.019400312718368312E-01 2.176965975714864943E+00
        pair_coeff 25   36    1.019400312718368312E-01 2.176965975714864943E+00
        pair_coeff 26     36    0.000000000000000000E+00 0.000000000000000000E+00
        pair_coeff 27   36    7.511205062526553344E-02 2.290643472851174423E+00
        pair_coeff 28   36    1.951502585967282086E-02 2.456408480346143008E+00
        pair_coeff 29   36    2.484899949270408595E-02 2.963138438331942570E+00
        pair_coeff 30     36    3.483849611111720229E-02 3.262311820657642247E+00
        pair_coeff 31      36    1.675176206482257082E-02 3.206574591777111127E+00
        pair_coeff 32     36    3.910749134331937410E-02 3.290877095024250742E+00
        pair_coeff 33     36    5.964020458481446990E-02 3.375611081141380421E+00
        pair_coeff 34   36    3.520074306999246977E-02 3.352620620536940876E+00
        pair_coeff 35   36    2.588358025598428910E-02 3.148930915109191542E+00
        pair_coeff 36    36    5.096507499468877836E-03 3.121166470390387637E+00
        pair_coeff 1      37    2.226461306623754022E-01 3.362204455973978323E+00
        pair_coeff 2     37    2.585601331580250628E-01 3.279440211868734245E+00
        pair_coeff 3     37    1.814556892113898812E-01 3.478816702288478169E+00
        pair_coeff 4     37    2.024055733294321535E-01 3.416039629150127599E+00
        pair_coeff 5     37    1.587354808368636461E-01 3.600773118478173718E+00
        pair_coeff 6      37    1.234266556414602978E-01 3.732622205057627429E+00
        pair_coeff 7     37    1.065857741828254851E-01 3.825007768809989717E+00
        pair_coeff 8     37    7.816753321752194228E-02 4.027891788010422580E+00
        pair_coeff 9     37    1.302650689360985159E-01 3.699226015163477044E+00
        pair_coeff 10     37    1.116471098283786517E-01 3.795546193799352430E+00
        pair_coeff 11     37    1.208760039875793058E-01 3.745635506050692953E+00
        pair_coeff 12      37    1.036857643481583074E-01 3.829812028396864854E+00
        pair_coeff 13    37    1.646524085418059336E-02 5.214730762000061581E+00
        pair_coeff 14    37    6.064152927768903800E-02 4.533993458352017392E+00
        pair_coeff 15    37    1.261364026450952358E-01 4.083024387295987268E+00
        pair_coeff 16    37    1.833194965587523484E-01 3.917955455811204413E+00
        pair_coeff 17    37    2.212938895114058557E-01 3.898059058590013226E+00
        pair_coeff 18   37    1.362871169309986807E-01 4.024605466717271263E+00
        pair_coeff 19    37    1.395719415233208360E-01 3.914437771771909880E+00
        pair_coeff 20     37    6.773326384502838249E-02 3.117817146058102118E+00
        pair_coeff 21      37    0.000000000000000000E+00 0.000000000000000000E+00
        pair_coeff 22    37    0.000000000000000000E+00 0.000000000000000000E+00
        pair_coeff 23      37    2.717739891131936147E-01 3.680671794426697563E+00
        pair_coeff 24   37    1.829513281662208113E-01 3.018185729444698318E+00
        pair_coeff 25   37    1.006209944693221142E-01 3.334421172424263169E+00
        pair_coeff 26     37    0.000000000000000000E+00 0.000000000000000000E+00
        pair_coeff 27   37    4.236727957739777617E-01 2.623997756297280493E+00
        pair_coeff 28   37    1.100753540442943462E-01 2.813886323808834078E+00
        pair_coeff 29   37    1.401618648355585917E-01 3.394360015399224828E+00
        pair_coeff 30     37    1.965080559655630332E-01 3.737071700247052153E+00
        pair_coeff 31      37    1.329259999757477217E-01 3.470104559304247438E+00
        pair_coeff 32     37    2.205875096632962662E-01 3.769794040818323477E+00
        pair_coeff 33     37    3.364031737469428962E-01 3.866859250698725603E+00
        pair_coeff 34   37    1.985513257278677390E-01 3.840523019086392154E+00
        pair_coeff 35   37    1.459974627294264860E-01 3.607190623033505794E+00
        pair_coeff 36    37    2.874707271347901050E-02 3.575385655778474892E+00
        pair_coeff 37    37    1.621491167589119986E-01 4.095706752209074430E+00
        pair_coeff 1      38   1.763627633860331279E-01 3.063392634298282680E+00
        pair_coeff 2     38   2.048110131065301875E-01 2.987983961478049899E+00
        pair_coeff 3     38   1.603297848963937400E-01 3.112443272096635738E+00
        pair_coeff 4     38   1.603297848963937400E-01 3.112443272096635738E+00
        pair_coeff 5     38   1.257377703556508686E-01 3.280758797795926274E+00
        pair_coeff 6      38   1.247307695705341529E-01 3.265605835984801697E+00
        pair_coeff 7     38   1.247307695705341529E-01 3.265605835984801697E+00
        pair_coeff 8     38   1.247307695705341529E-01 3.265605835984801697E+00
        pair_coeff 9     38   1.247307695705341529E-01 3.265605835984801697E+00
        pair_coeff 10     38   1.247307695705341529E-01 3.265605835984801697E+00
        pair_coeff 11     38   1.247307695705341529E-01 3.265605835984801697E+00
        pair_coeff 12      38   8.213171219204309925E-02 3.489442153850004225E+00
        pair_coeff 13    38   1.304246953774084068E-02 4.751277923558641980E+00
        pair_coeff 14    38   4.803545270493036340E-02 4.131040317787165073E+00
        pair_coeff 15    38   9.991534309570471173E-02 3.720150573079720857E+00
        pair_coeff 16    38   1.452112951590650569E-01 3.569751941621275737E+00
        pair_coeff 17    38   1.752916242405209712E-01 3.551623812444546502E+00
        pair_coeff 18   38   1.079559410458155871E-01 3.666923562840495698E+00
        pair_coeff 19    38   1.105579208808877417E-01 3.566546887462056503E+00
        pair_coeff 20     38   5.365296737619508483E-02 2.840724948583317921E+00
        pair_coeff 21      38   0.000000000000000000E+00 0.000000000000000000E+00
        pair_coeff 22    38   0.000000000000000000E+00 0.000000000000000000E+00
        pair_coeff 23      38   2.152779911056781903E-01 3.353556576335538608E+00
        pair_coeff 24   38   4.554675757398939928E-01 2.272145541239902311E+00
        pair_coeff 25   38   4.554675757398939928E-01 2.272145541239902311E+00
        pair_coeff 26     38   0.000000000000000000E+00 0.000000000000000000E+00
        pair_coeff 27   38   3.356002855827399101E-01 2.390793155000958237E+00
        pair_coeff 28   38   8.719304288914962731E-02 2.563805607595497360E+00
        pair_coeff 29   38   1.110252117573227587E-01 3.092690407585096501E+00
        pair_coeff 30     38   1.556582352210648112E-01 3.404944009291379192E+00
        pair_coeff 31      38   1.052935283978697484E-01 3.161703247501671754E+00
        pair_coeff 32     38   1.747320856505523434E-01 3.434758191740909350E+00
        pair_coeff 33     38   2.664721509299896041E-01 3.523196849439405476E+00
        pair_coeff 34   38   1.572767529134725395E-01 3.499201218301315031E+00
        pair_coeff 35   38   1.156477136957594076E-01 3.286605954458409862E+00
        pair_coeff 36    38   2.277117131083897586E-02 3.257627614890140855E+00
        pair_coeff 37    38   1.284417844007869070E-01 3.731705808274059954E+00
        pair_coeff 38   38   1.017414853056947954E-01 3.400055004425153182E+00
        pair_coeff 1      39  3.025968882784489944E-01 3.081336470273898787E+00
        pair_coeff 2     39  3.514073722894541785E-01 3.005486090817345968E+00
        pair_coeff 3     39  2.750880802531354141E-01 3.130674422401240609E+00
        pair_coeff 4     39  2.750880802531354141E-01 3.130674422401240609E+00
        pair_coeff 5     39  2.157363454631790467E-01 3.299975857040665872E+00
        pair_coeff 6      39  2.140085697228813477E-01 3.284734136688360451E+00
        pair_coeff 7     39  2.140085697228813477E-01 3.284734136688360451E+00
        pair_coeff 8     39  2.140085697228813477E-01 3.284734136688360451E+00
        pair_coeff 9     39  2.140085697228813477E-01 3.284734136688360451E+00
        pair_coeff 10     39  2.140085697228813477E-01 3.284734136688360451E+00
        pair_coeff 11     39  2.140085697228813477E-01 3.284734136688360451E+00
        pair_coeff 12      39  1.409186387258750672E-01 3.509881576780662371E+00
        pair_coeff 13    39  2.237780028966923282E-02 4.779108555120642698E+00
        pair_coeff 14    39  8.241750263201898241E-02 4.155237904815708205E+00
        pair_coeff 15    39  1.714311532183001030E-01 3.741941371601773980E+00
        pair_coeff 16    39  2.491483191485096838E-01 3.590661779490871286E+00
        pair_coeff 17    39  3.007590662454852626E-01 3.572427464716889212E+00
        pair_coeff 18   39  1.852269220806647965E-01 3.688402583913419353E+00
        pair_coeff 19    39  1.896913055272583803E-01 3.587437951712664219E+00
        pair_coeff 20     39  9.205583232672064076E-02 2.857364507599851500E+00
        pair_coeff 21      39  0.000000000000000000E+00 0.000000000000000000E+00
        pair_coeff 22    39  0.000000000000000000E+00 0.000000000000000000E+00
        pair_coeff 23      39  3.693662367992399664E-01 3.373200048891741964E+00
        pair_coeff 24   39  7.814748900761182560E-01 2.285454643849949008E+00
        pair_coeff 25   39  7.814748900761182560E-01 2.285454643849949008E+00
        pair_coeff 26     39  0.000000000000000000E+00 0.000000000000000000E+00
        pair_coeff 27   39  5.758109034638668744E-01 2.404797236536131866E+00
        pair_coeff 28   39  1.496026879553617739E-01 2.578823110340977554E+00
        pair_coeff 29   39  1.904930664115593308E-01 3.110805855398001363E+00
        pair_coeff 30     39  2.670728032862023649E-01 3.424888483964596109E+00
        pair_coeff 31      39  1.806588501866098206E-01 3.180222938331227489E+00
        pair_coeff 32     39  2.997990300510781636E-01 3.454877303120381882E+00
        pair_coeff 33     39  4.572033355350892392E-01 3.543833990649556398E+00
        pair_coeff 34   39  2.698497977488837352E-01 3.519697804995386647E+00
        pair_coeff 35   39  1.984241890350484927E-01 3.305857263449297090E+00
        pair_coeff 36    39  3.906995699558794138E-02 3.276709183128165837E+00
        pair_coeff 37    39  2.203757955387509737E-01 3.753564291637640160E+00
        pair_coeff 38   39  1.745857558702323398E-01 3.420002180612172538E+00
        pair_coeff 39  39  2.995112907802387481E-01 3.440003336141669088E+00
        pair_coeff 1      40   7.770287548036601544E-02 2.465397265096893165E+00
        pair_coeff 2     40   9.023676167734992482E-02 2.404708885274443819E+00
        pair_coeff 3     40   7.063897770942365040E-02 2.504872880114495270E+00
        pair_coeff 4     40   7.063897770942365040E-02 2.504872880114495270E+00
        pair_coeff 5     40   5.539823784535763407E-02 2.640332054392829697E+00
        pair_coeff 6      40   5.495456790555701410E-02 2.628137055231117181E+00
        pair_coeff 7     40   5.495456790555701410E-02 2.628137055231117181E+00
        pair_coeff 8     40   5.495456790555701410E-02 2.628137055231117181E+00
        pair_coeff 9     40   5.495456790555701410E-02 2.628137055231117181E+00
        pair_coeff 10     40   5.495456790555701410E-02 2.628137055231117181E+00
        pair_coeff 11     40   5.495456790555701410E-02 2.628137055231117181E+00
        pair_coeff 12      40   3.618604110595938922E-02 2.808278980140014092E+00
        pair_coeff 13    40   5.746322902807278477E-03 3.823795705227954755E+00
        pair_coeff 14    40   2.116372372780480487E-02 3.324632757632268287E+00
        pair_coeff 15    40   4.402125093804482719E-02 2.993951524832954014E+00
        pair_coeff 16    40   6.397799041847561374E-02 2.872911743474042101E+00
        pair_coeff 17    40   7.723094710927499995E-02 2.858322350135023004E+00
        pair_coeff 18   40   4.756382176938069029E-02 2.951114794077698278E+00
        pair_coeff 19    40   4.871021634409310186E-02 2.870332337990671334E+00
        pair_coeff 20     40   2.363871921228234349E-02 2.286195847282922244E+00
        pair_coeff 21      40   0.000000000000000000E+00 0.000000000000000000E+00
        pair_coeff 22    40   0.000000000000000000E+00 0.000000000000000000E+00
        pair_coeff 23      40   9.484836036467202136E-02 2.698919204504523606E+00
        pair_coeff 24   40   2.006724075058574086E-01 1.828607061516331456E+00
        pair_coeff 25   40   2.006724075058574086E-01 1.828607061516331456E+00
        pair_coeff 26     40   0.000000000000000000E+00 0.000000000000000000E+00
        pair_coeff 27   40   1.478606180871174514E-01 1.924093842806378074E+00
        pair_coeff 28   40   3.841598999863683750E-02 2.063333071457193135E+00
        pair_coeff 29   40   4.891609792639325244E-02 2.488975910983167061E+00
        pair_coeff 30     40   6.858076068133200920E-02 2.740275456148935529E+00
        pair_coeff 31      40   4.639080137386862590E-02 2.544516968594239259E+00
        pair_coeff 32     40   7.698442252240610129E-02 2.764269704567898334E+00
        pair_coeff 33     40   1.174037646335611834E-01 2.835444526357811412E+00
        pair_coeff 34   40   6.929385610069017931E-02 2.816133007906088892E+00
        pair_coeff 35   40   5.095270523302689036E-02 2.645037805749309356E+00
        pair_coeff 36    40   1.003264779331716934E-02 2.621716237916714931E+00
        pair_coeff 37    40   5.658958721306098921E-02 3.003251098425550492E+00
        pair_coeff 38   40   4.492103907914993949E-02 2.799891255752950503E+00
        pair_coeff 39  40   7.712993371945030263E-02 2.820082387646319688E+00
        pair_coeff 40   40   1.974960730563848910E-02 2.202188219488486975E+00
        pair_coeff 1      41  3.078683944880841739E-01 3.134598379462572915E+00
        pair_coeff 2     41  3.575292004274581159E-01 3.057436901376735072E+00
        pair_coeff 3     41  2.798803586255310671E-01 3.184789154237201991E+00
        pair_coeff 4     41  2.798803586255310671E-01 3.184789154237201991E+00
        pair_coeff 5     41  2.194946639681157330E-01 3.357017019574562333E+00
        pair_coeff 6      41  2.177367888418141884E-01 3.341511841098447899E+00
        pair_coeff 7     41  2.177367888418141884E-01 3.341511841098447899E+00
        pair_coeff 8     41  2.177367888418141884E-01 3.341511841098447899E+00
        pair_coeff 9     41  2.177367888418141884E-01 3.341511841098447899E+00
        pair_coeff 10     41  2.177367888418141884E-01 3.341511841098447899E+00
        pair_coeff 11     41  2.177367888418141884E-01 3.341511841098447899E+00
        pair_coeff 12      41  1.433735664130799115E-01 3.570551028367321855E+00
        pair_coeff 13    41  2.276764142074000352E-02 4.861717010354688284E+00
        pair_coeff 14    41  8.385328863556677781E-02 4.227062551711202154E+00
        pair_coeff 15    41  1.744176359738121573E-01 3.806622052678410917E+00
        pair_coeff 16    41  2.534887038728330655E-01 3.652727543314932213E+00
        pair_coeff 17    41  3.059985559650827969E-01 3.634178042443301226E+00
        pair_coeff 18   41  1.884537393671708305E-01 3.752157829525465615E+00
        pair_coeff 19    41  1.929958963334948985E-01 3.649447990618651438E+00
        pair_coeff 20     41  9.365952658314305457E-02 2.906754988123776862E+00
        pair_coeff 21      41  0.000000000000000000E+00 0.000000000000000000E+00
        pair_coeff 22    41  0.000000000000000000E+00 0.000000000000000000E+00
        pair_coeff 23      41  3.758009242872520916E-01 3.431506915542800851E+00
        pair_coeff 24   41  7.950888758614560459E-01 2.324959475233958628E+00
        pair_coeff 25   41  7.950888758614560459E-01 2.324959475233958628E+00
        pair_coeff 26     41  0.000000000000000000E+00 0.000000000000000000E+00
        pair_coeff 27   41  5.858420401700457081E-01 2.446364943686976545E+00
        pair_coeff 28   41  1.522088994832513364E-01 2.623398911666701139E+00
        pair_coeff 29   41  1.938116246035951340E-01 3.164577152551757422E+00
        pair_coeff 30     41  2.717254484239552959E-01 3.484088802129798879E+00
        pair_coeff 31      41  1.838060876086547446E-01 3.235194132478707463E+00
        pair_coeff 32     41  3.050217950885778517E-01 3.514595987837878077E+00
        pair_coeff 33     41  4.651682231981815185E-01 3.605090320820125260E+00
        pair_coeff 34   41  2.745508205934842905E-01 3.580536933298883895E+00
        pair_coeff 35   41  2.018809144184158522E-01 3.363000088017528810E+00
        pair_coeff 36    41  3.975059030310198332E-02 3.333348173589975261E+00
        pair_coeff 37    41  2.242149373793861367E-01 3.818445878690444051E+00
        pair_coeff 38   41  1.776054487496074863E-01 3.479086156840626831E+00
        pair_coeff 39  41  3.047290431444037995E-01 3.499464919472758506E+00
        pair_coeff 40   41  7.825038462692963936E-02 2.799944545168011611E+00
        pair_coeff 41  41  3.100376933831125448E-01 3.559954315729227936E+00
        pair_coeff 1      42  2.517150719017874350E-01 3.216286733597559344E+00
        pair_coeff 2     42  2.923180488930291476E-01 3.137114409660223480E+00
        pair_coeff 3     42  2.288318835470794788E-01 3.267785491497223305E+00
        pair_coeff 4     42  2.288318835470794788E-01 3.267785491497223305E+00
        pair_coeff 5     42  1.794601723072659361E-01 3.444501654585188533E+00
        pair_coeff 6      42  1.780229229119614787E-01 3.428592407594721170E+00
        pair_coeff 7     42  1.780229229119614787E-01 3.428592407594721170E+00
        pair_coeff 8     42  1.780229229119614787E-01 3.428592407594721170E+00
        pair_coeff 9     42  1.780229229119614787E-01 3.428592407594721170E+00
        pair_coeff 10     42  1.780229229119614787E-01 3.428592407594721170E+00
        pair_coeff 11     42  1.780229229119614787E-01 3.428592407594721170E+00
        pair_coeff 12      42  1.172230999498745652E-01 3.663600408719620116E+00
        pair_coeff 13    42  1.861496210673063006E-02 4.988414472922134912E+00
        pair_coeff 14    42  6.855895881485152277E-02 4.337220773235620719E+00
        pair_coeff 15    42  1.426049200441300291E-01 3.905823498176049124E+00
        pair_coeff 16    42  2.072539060975635561E-01 3.747918462531858008E+00
        pair_coeff 17    42  2.501862805523388245E-01 3.728885557404626905E+00
        pair_coeff 18   42  1.540809235512614617E-01 3.849939924851243589E+00
        pair_coeff 19    42  1.577946187139902257E-01 3.744553443938634096E+00
        pair_coeff 20     42  7.657659860592054557E-02 2.982505691119483604E+00
        pair_coeff 21      42  0.000000000000000000E+00 0.000000000000000000E+00
        pair_coeff 22    42  0.000000000000000000E+00 0.000000000000000000E+00
        pair_coeff 23      42  3.072571214561132247E-01 3.520932774360979955E+00
        pair_coeff 24   42  6.500695009260647472E-01 2.385548453460561547E+00
        pair_coeff 25   42  6.500695009260647472E-01 2.385548453460561547E+00
        pair_coeff 26     42  0.000000000000000000E+00 0.000000000000000000E+00
        pair_coeff 27   42  4.789880153488779158E-01 2.510117776321816319E+00
        pair_coeff 28   42  1.244469220077783211E-01 2.691765290191502125E+00
        pair_coeff 29   42  1.584615631091823018E-01 3.247046760402909182E+00
        pair_coeff 30     42  2.221643793651205678E-01 3.574884956996347896E+00
        pair_coeff 31      42  1.502809752047785663E-01 3.319504035055336644E+00
        pair_coeff 32     42  2.493876749186909880E-01 3.606187166974876845E+00
        pair_coeff 33     42  3.803243686103310317E-01 3.699039803071263677E+00
        pair_coeff 34   42  2.244744208358758208E-01 3.673846548628572073E+00
        pair_coeff 35   42  1.650590635421556873E-01 3.450640643166755339E+00
        pair_coeff 36    42  3.250032440946476475E-02 3.420215993034873669E+00
        pair_coeff 37    42  1.833194965587523484E-01 3.917955455811204413E+00
        pair_coeff 38   42  1.452112951590650569E-01 3.569751941621275737E+00
        pair_coeff 39  42  2.491483191485096838E-01 3.590661779490871286E+00
        pair_coeff 40   42  6.397799041847561374E-02 2.872911743474042101E+00
        pair_coeff 41  42  2.534887038728330655E-01 3.652727543314932213E+00
        pair_coeff 42  42  2.072539060975635561E-01 3.747918462531858008E+00
        pair_coeff 1      43  3.540045720962458620E-01 2.694267436109534231E+00
        pair_coeff 2     43  4.111073883361350823E-01 2.627945173235017418E+00
        pair_coeff 3     43  2.223108962183115156E-01 2.911490578234520399E+00
        pair_coeff 4     43  3.218223382693144452E-01 2.737407690042663599E+00
        pair_coeff 5     43  1.944751755089789147E-01 3.013558317663839858E+00
        pair_coeff 6      43  1.512164790871689257E-01 3.123905428815852758E+00
        pair_coeff 7     43  1.305838306072752142E-01 3.201224736341582222E+00
        pair_coeff 8     43  9.576715086909036445E-02 3.371022389085928772E+00
        pair_coeff 9     43  1.595945784173651294E-01 3.095955496253500083E+00
        pair_coeff 10     43  1.367847387646038970E-01 3.176567760880071756E+00
        pair_coeff 11     43  1.480915417673231704E-01 3.134796518078508232E+00
        pair_coeff 12      43  1.648590726968548470E-01 3.068979881992677683E+00
        pair_coeff 13    43  2.617952769134209573E-02 4.178770049266796960E+00
        pair_coeff 14    43  9.641927555329404820E-02 3.633268318548095621E+00
        pair_coeff 15    43  2.005553077041754007E-01 3.271888962013142610E+00
        pair_coeff 16    43  2.914757141438480414E-01 3.139612697248032713E+00
        pair_coeff 17    43  3.518545255241552483E-01 3.123668927072572821E+00
        pair_coeff 18   43  2.166948168731066826E-01 3.225075569957748023E+00
        pair_coeff 19    43  2.219176470240586396E-01 3.136793837871186597E+00
        pair_coeff 20     43  1.076950451050141949E-01 2.498430216949698135E+00
        pair_coeff 21      43  0.000000000000000000E+00 0.000000000000000000E+00
        pair_coeff 22    43  0.000000000000000000E+00 0.000000000000000000E+00
        pair_coeff 23      43  4.321172545720066149E-01 2.949467912669808012E+00
        pair_coeff 24   43  2.241432820636522216E-01 2.525979396632042295E+00
        pair_coeff 25   43  1.232760656668827753E-01 2.790643100279648792E+00
        pair_coeff 26     43  0.000000000000000000E+00 0.000000000000000000E+00
        pair_coeff 27   43  5.190637964627597967E-01 2.196075677037649054E+00
        pair_coeff 28   43  1.348590981935383903E-01 2.354997178955427373E+00
        pair_coeff 29   43  1.717196629251071804E-01 2.840807104746190692E+00
        pair_coeff 30     43  3.124453591831943267E-01 2.994663388329067644E+00
        pair_coeff 31      43  2.113506828162100282E-01 2.780732057331203322E+00
        pair_coeff 32     43  3.507313903718691228E-01 3.020885094292788509E+00
        pair_coeff 33     43  5.348768524286334758E-01 3.098667286775234508E+00
        pair_coeff 34   43  3.156941326324790298E-01 3.077563022548567950E+00
        pair_coeff 35   43  1.788691604327004581E-01 3.018929254291899511E+00
        pair_coeff 36    43  3.521954878549677509E-02 2.992311047462213214E+00
        pair_coeff 37    43  2.578150741863444728E-01 3.282051842720017820E+00
        pair_coeff 38   43  2.042208359552802888E-01 2.990363486821641992E+00
        pair_coeff 39  43  3.503947675532131378E-01 3.007879554241217335E+00
        pair_coeff 40   43  8.997673818477992802E-02 2.406623910860338000E+00
        pair_coeff 41  43  3.564989552184898436E-01 3.059871736599097503E+00
        pair_coeff 42  43  2.914757141438480414E-01 3.139612697248032713E+00
        pair_coeff 43  43  4.099227538595709985E-01 2.630037976349726581E+00
        pair_coeff 1      44   1.289710283612314212E-01 3.227417274371960687E+00
        pair_coeff 2     44   1.497747397064584929E-01 3.147970960317207023E+00
        pair_coeff 3     44   1.172463894193012807E-01 3.279094253018750571E+00
        pair_coeff 4     44   1.172463894193012807E-01 3.279094253018750571E+00
        pair_coeff 5     44   9.194984947656417718E-02 3.456421974285966314E+00
        pair_coeff 6      44   9.121344727734942426E-02 3.440457670474703633E+00
        pair_coeff 7     44   9.121344727734942426E-02 3.440457670474703633E+00
        pair_coeff 8     44   9.121344727734942426E-02 3.440457670474703633E+00
        pair_coeff 9     44   9.121344727734942426E-02 3.440457670474703633E+00
        pair_coeff 10     44   9.121344727734942426E-02 3.440457670474703633E+00
        pair_coeff 11     44   9.121344727734942426E-02 3.440457670474703633E+00
        pair_coeff 12      44   6.006149585721085732E-02 3.676278959205930619E+00
        pair_coeff 13    44   9.537731641064108729E-03 5.005677781603687038E+00
        pair_coeff 14    44   3.512749298213131699E-02 4.352230508580356094E+00
        pair_coeff 15    44   7.306635652965057237E-02 3.919340305384166889E+00
        pair_coeff 16    44   1.061905002323981356E-01 3.760888810862612175E+00
        pair_coeff 17    44   1.281877228920814960E-01 3.741790038931789741E+00
        pair_coeff 18   44   7.894630627842579018E-02 3.863263336867006181E+00
        pair_coeff 19    44   8.084908897847854770E-02 3.757512147015167780E+00
        pair_coeff 20     44   3.923548397794881376E-02 2.992827190399418136E+00
        pair_coeff 21      44   0.000000000000000000E+00 0.000000000000000000E+00
        pair_coeff 22    44   0.000000000000000000E+00 0.000000000000000000E+00
        pair_coeff 23      44   1.574290590790217992E-01 3.533117597747393646E+00
        pair_coeff 24   44   3.330755342032887256E-01 2.393804074470089471E+00
        pair_coeff 25   44   3.330755342032887256E-01 2.393804074470089471E+00
        pair_coeff 26     44   0.000000000000000000E+00 0.000000000000000000E+00
        pair_coeff 27   44   2.454186650227814237E-01 2.518804491957598035E+00
        pair_coeff 28   44   6.376275916443908953E-02 2.701080629836012825E+00
        pair_coeff 29   44   8.119081068730508999E-02 3.258283751802188988E+00
        pair_coeff 30     44   1.138301662092522648E-01 3.587256491649024159E+00
        pair_coeff 31      44   7.699933011103650415E-02 3.330991777931932241E+00
        pair_coeff 32     44   1.277785420311642051E-01 3.618667028575163869E+00
        pair_coeff 33     44   1.948664597630800355E-01 3.711840997978461676E+00
        pair_coeff 34   44   1.150137601108388863E-01 3.686560557731444199E+00
        pair_coeff 35   44   8.457116613851239917E-02 3.462582207945594348E+00
        pair_coeff 36    44   1.665216242115909184E-02 3.432052267820347335E+00
        pair_coeff 37    44   9.392724802379077975E-02 3.931514247848511001E+00
        pair_coeff 38   44   7.440178263794279545E-02 3.582105712547747789E+00
        pair_coeff 39  44   1.276559035272747666E-01 3.603087912685470684E+00
        pair_coeff 40   44   3.278034626379167787E-02 2.882853973116679569E+00
        pair_coeff 41  44   1.298797826027309477E-01 3.665368466287981519E+00
        pair_coeff 42  44   1.061905002323981356E-01 3.760888810862612175E+00
        pair_coeff 43  44   1.493431533973610947E-01 3.150477893680148966E+00
        pair_coeff 44   44   5.440873251526867627E-02 3.773904045424884668E+00
        pair_coeff 1      45  2.876124418215142975E-01 3.084725325848334254E+00
        pair_coeff 2     45  3.340058550940822601E-01 3.008791526102005953E+00
        pair_coeff 3     45  2.614658562013765786E-01 3.134117539883036763E+00
        pair_coeff 4     45  2.614658562013765786E-01 3.134117539883036763E+00
        pair_coeff 5     45  2.050531896125046272E-01 3.303605172335025486E+00
        pair_coeff 6      45  2.034109724621096793E-01 3.288346689130147382E+00
        pair_coeff 7     45  2.034109724621096793E-01 3.288346689130147382E+00
        pair_coeff 8     45  2.034109724621096793E-01 3.288346689130147382E+00
        pair_coeff 9     45  2.034109724621096793E-01 3.288346689130147382E+00
        pair_coeff 10     45  2.034109724621096793E-01 3.288346689130147382E+00
        pair_coeff 11     45  2.034109724621096793E-01 3.288346689130147382E+00
        pair_coeff 12      45  1.339404182663543053E-01 3.513741746503062924E+00
        pair_coeff 13    45  2.126966281947830981E-02 4.784364621384128213E+00
        pair_coeff 14    45  7.833622915187883617E-02 4.159807837788846996E+00
        pair_coeff 15    45  1.629419683127158180E-01 3.746056760816388831E+00
        pair_coeff 16    45  2.368106190837268310E-01 3.594610791325419719E+00
        pair_coeff 17    45  2.858656278157876152E-01 3.576356422441845595E+00
        pair_coeff 18   45  1.760545776058381751E-01 3.692459091139371985E+00
        pair_coeff 19    45  1.802978870185932558E-01 3.591383417979618908E+00
        pair_coeff 20     45  8.749727358411062139E-02 2.860507038684394931E+00
        pair_coeff 21      45  0.000000000000000000E+00 0.000000000000000000E+00
        pair_coeff 22    45  0.000000000000000000E+00 0.000000000000000000E+00
        pair_coeff 23      45  3.510754056218069463E-01 3.376909896193278637E+00
        pair_coeff 24   45  7.427766446499820541E-01 2.287968188146278781E+00
        pair_coeff 25   45  7.427766446499820541E-01 2.287968188146278781E+00
        pair_coeff 26     45  0.000000000000000000E+00 0.000000000000000000E+00
        pair_coeff 27   45  5.472970357193517321E-01 2.407442033882686516E+00
        pair_coeff 28   45  1.421944377243884450E-01 2.581659301440933696E+00
        pair_coeff 29   45  1.810599451051872477E-01 3.114227121418688515E+00
        pair_coeff 30     45  2.538474917381768337E-01 3.428655178235952672E+00
        pair_coeff 31      45  1.717127143456437521E-01 3.183720549298572955E+00
        pair_coeff 32     45  2.849531321332268163E-01 3.458676979111828587E+00
        pair_coeff 33     45  4.345628551909777593E-01 3.547731501255731335E+00
        pair_coeff 34   45  2.564869708249599145E-01 3.523568770611071432E+00
        pair_coeff 35   45  1.885983225059109647E-01 3.309493047117717079E+00
        pair_coeff 36    45  3.713523227979241559E-02 3.280312909721536219E+00
        pair_coeff 37    45  2.094628964423923267E-01 3.757692463746214351E+00
        pair_coeff 38   45  1.659200415184466093E-01 3.423732127576304407E+00
        pair_coeff 39  45  2.846796415670648783E-01 3.443786653735909642E+00
        pair_coeff 40   45  7.310196369278490480E-02 2.755396004170551638E+00
        pair_coeff 41  45  2.896390134456565679E-01 3.503313632949622392E+00
        pair_coeff 42  45  2.368106190837268310E-01 3.594610791325419719E+00
        pair_coeff 43  45  3.330433940375682744E-01 3.011187621858291141E+00
        pair_coeff 44   45  1.213344470767514366E-01 3.607050590788261513E+00
        pair_coeff 45  45  2.705824481996443320E-01 3.447574132224956678E+00
        pair_coeff 1      46   1.591939588900956049E-01 2.914305969007454422E+00
        pair_coeff 2     46   1.848727893277152534E-01 2.842567223260527687E+00
        pair_coeff 3     46   1.297424277832890105E-01 3.015383630983031082E+00
        pair_coeff 4     46   1.447217808091778302E-01 2.960969450834395111E+00
        pair_coeff 5     46   1.134972772065044738E-01 3.121093535396749274E+00
        pair_coeff 6      46   8.825115390810175930E-02 3.235378250992776650E+00
        pair_coeff 7     46   7.620977424152966528E-02 3.315456605363892528E+00
        pair_coeff 8     46   5.589047980555466449E-02 3.491313283895585595E+00
        pair_coeff 9     46   9.314068008877877947E-02 3.206430958576428125E+00
        pair_coeff 10     46   7.982867413568051074E-02 3.289919775276922032E+00
        pair_coeff 11     46   8.642741534447667684E-02 3.246657975726112255E+00
        pair_coeff 12      46   7.413624147890124361E-02 3.319620862051439580E+00
        pair_coeff 13    46   1.177279330145077942E-02 4.520046649590542032E+00
        pair_coeff 14    46   4.335923148605760197E-02 3.929994255893134447E+00
        pair_coeff 15    46   9.018864705840204388E-02 3.539101354278793465E+00
        pair_coeff 16    46   1.310750665736078457E-01 3.396022199330606561E+00
        pair_coeff 17    46   1.582270944691577808E-01 3.378776314988137131E+00
        pair_coeff 18   46   9.744649783680001121E-02 3.488464752259239798E+00
        pair_coeff 19    46   9.979517656548757276E-02 3.392973126102896142E+00
        pair_coeff 20     46   4.842988462435294378E-02 2.702474890510119909E+00
        pair_coeff 21      46   0.000000000000000000E+00 0.000000000000000000E+00
        pair_coeff 22    46   0.000000000000000000E+00 0.000000000000000000E+00
        pair_coeff 23      46   1.943208135778947410E-01 3.190348451711801925E+00
        pair_coeff 24   46   1.308118229063097715E-01 2.616115944782948066E+00
        pair_coeff 25   46   7.194490382282986429E-02 2.890223855576281586E+00
        pair_coeff 26     46   0.000000000000000000E+00 0.000000000000000000E+00
        pair_coeff 27   46   3.029298080889223921E-01 2.274440006244081047E+00
        pair_coeff 28   46   7.870485480438377257E-02 2.439032431538718626E+00
        pair_coeff 29   46   1.002169769679346900E-01 2.942177902435911818E+00
        pair_coeff 30     46   1.405050035672634479E-01 3.239235003477465291E+00
        pair_coeff 31      46   9.504326939170110178E-02 3.007832082398090190E+00
        pair_coeff 32     46   1.577220266102814239E-01 3.267598213893569081E+00
        pair_coeff 33     46   2.405312540247006858E-01 3.351732811965022041E+00
        pair_coeff 34   46   1.419659595765774829E-01 3.328904980405696268E+00
        pair_coeff 35   46   1.043894812394069449E-01 3.126656127462947410E+00
        pair_coeff 36    46   2.055441205353729026E-02 3.099088081816367968E+00
        pair_coeff 37    46   1.159380571788471426E-01 3.550094228820277475E+00
        pair_coeff 38   46   9.183701546862199638E-02 3.234583932666422079E+00
        pair_coeff 39  46   1.575706491327610870E-01 3.253530522433367267E+00
        pair_coeff 40   46   4.046205695828821586E-02 2.603170841386070578E+00
        pair_coeff 41  46   1.603156696122686187E-01 3.309768862160356484E+00
        pair_coeff 42  46   1.310750665736078457E-01 3.396022199330606561E+00
        pair_coeff 43  46   1.843400655522983711E-01 2.844830943827911796E+00
        pair_coeff 44   46   6.715881572284602974E-02 3.407774747126039561E+00
        pair_coeff 45  46   1.497678294522704623E-01 3.257108757122733511E+00
        pair_coeff 46   46   8.289673956344170702E-02 3.077165870507050371E+00
        pair_coeff 1      47   1.722085049816445279E-01 3.045791995942584762E+00
        pair_coeff 2     47   1.999866507741778487E-01 2.970816581583684446E+00
        pair_coeff 3     47   1.565531863469495633E-01 3.094560814646859725E+00
        pair_coeff 4     47   1.565531863469495633E-01 3.094560814646859725E+00
        pair_coeff 5     47   1.227759932819626476E-01 3.261909288109908545E+00
        pair_coeff 6      47   1.217927125916918318E-01 3.246843387225244904E+00
        pair_coeff 7     47   1.217927125916918318E-01 3.246843387225244904E+00
        pair_coeff 8     47   1.217927125916918318E-01 3.246843387225244904E+00
        pair_coeff 9     47   1.217927125916918318E-01 3.246843387225244904E+00
        pair_coeff 10     47   1.217927125916918318E-01 3.246843387225244904E+00
        pair_coeff 11     47   1.217927125916918318E-01 3.246843387225244904E+00
        pair_coeff 12      47   8.019708410451541203E-02 3.469393659665676477E+00
        pair_coeff 13    47   1.273525168942131643E-02 4.723979586569880595E+00
        pair_coeff 14    47   4.690396848866595220E-02 4.107305538950095425E+00
        pair_coeff 15    47   9.756181820295757590E-02 3.698776550000724583E+00
        pair_coeff 16    47   1.417908155082314992E-01 3.549242029754096084E+00
        pair_coeff 17    47   1.711625967222450972E-01 3.531218055246321708E+00
        pair_coeff 18   47   1.054130183404619059E-01 3.645855354088885392E+00
        pair_coeff 19    47   1.079537080460851450E-01 3.546055390145638864E+00
        pair_coeff 20     47   5.238916153439685669E-02 2.824403641308426582E+00
        pair_coeff 21      47   0.000000000000000000E+00 0.000000000000000000E+00
        pair_coeff 22    47   0.000000000000000000E+00 0.000000000000000000E+00
        pair_coeff 23      47   2.102070771175983122E-01 3.334288809009665400E+00
        pair_coeff 24   47   4.447389504444150266E-01 2.259090991354548272E+00
        pair_coeff 25   47   4.447389504444150266E-01 2.259090991354548272E+00
        pair_coeff 26     47   0.000000000000000000E+00 0.000000000000000000E+00
        pair_coeff 27   47   3.276951570843523731E-01 2.377056918505081384E+00
        pair_coeff 28   47   8.513919419528666321E-02 2.549075332798732774E+00
        pair_coeff 29   47   1.084099917971301230E-01 3.074921439676577162E+00
        pair_coeff 30     47   1.519916759119208927E-01 3.385380996878945226E+00
        pair_coeff 31      47   1.028133193283557872E-01 3.143537768214339501E+00
        pair_coeff 32     47   1.706162381700878361E-01 3.415023882760973351E+00
        pair_coeff 33     47   2.601953487792239561E-01 3.502954418577414852E+00
        pair_coeff 34   47   1.535720691125297410E-01 3.479096653679860207E+00
        pair_coeff 35   47   1.129236098240292002E-01 3.267722850094167519E+00
        pair_coeff 36    47   2.223479204358534689E-02 3.238911004781051872E+00
        pair_coeff 37    47   1.254163137624429714E-01 3.710265394908199177E+00
        pair_coeff 38   47   9.934494528618387221E-02 3.380520081656078979E+00
        pair_coeff 39  47   1.704524851654297402E-01 3.400321493064580203E+00
        pair_coeff 40   47   4.376994193654968474E-02 2.720619247630047699E+00
        pair_coeff 41  47   1.734219186553421499E-01 3.459097162753066002E+00
        pair_coeff 42  47   1.417908155082314992E-01 3.549242029754096084E+00
        pair_coeff 43  47   1.994103753578723159E-01 2.973182435429682080E+00
        pair_coeff 44   47   7.264923450991972453E-02 3.561524822428556725E+00
        pair_coeff 45  47   1.620117634119973837E-01 3.404061168545596594E+00
        pair_coeff 46   47   8.967377711819192465E-02 3.215999719401493095E+00
        pair_coeff 47   47   9.700485622222822235E-02 3.361097396249958624E+00
        pair_coeff 1      48  1.891372059020736129E-01 3.289260052245521315E+00
        pair_coeff 2     48  2.196460409964854366E-01 3.208291412338459381E+00
        pair_coeff 3     48  1.719429144564305345E-01 3.341927249274361689E+00
        pair_coeff 4     48  1.719429144564305345E-01 3.341927249274361689E+00
        pair_coeff 5     48  1.348453046710865466E-01 3.522652869835305456E+00
        pair_coeff 6      48  1.337653640351980922E-01 3.506382662940996653E+00
        pair_coeff 7     48  1.337653640351980922E-01 3.506382662940996653E+00
        pair_coeff 8     48  1.337653640351980922E-01 3.506382662940996653E+00
        pair_coeff 9     48  1.337653640351980922E-01 3.506382662940996653E+00
        pair_coeff 10     48  1.337653640351980922E-01 3.506382662940996653E+00
        pair_coeff 11     48  1.337653640351980922E-01 3.506382662940996653E+00
        pair_coeff 12      48  8.808073916348332921E-02 3.746722686727856910E+00
        pair_coeff 13    48  1.398717166294168902E-02 5.101595040773273304E+00
        pair_coeff 14    48  5.151479334084436285E-02 4.435626611939518682E+00
        pair_coeff 15    48  1.071524876172654656E-01 3.994441499717314326E+00
        pair_coeff 16    48  1.557293507115795339E-01 3.832953806357374926E+00
        pair_coeff 17    48  1.879884811870324024E-01 3.813489069628770434E+00
        pair_coeff 18   48  1.157754883055521766E-01 3.937290001564532460E+00
        pair_coeff 19    48  1.185659367333865843E-01 3.829512439915094824E+00
        pair_coeff 20     48  5.753920012965894198E-02 3.050174825184523542E+00
        pair_coeff 21      48  0.000000000000000000E+00 0.000000000000000000E+00
        pair_coeff 22    48  0.000000000000000000E+00 0.000000000000000000E+00
        pair_coeff 23      48  2.308711711486143847E-01 3.600818111261308019E+00
        pair_coeff 24   48  4.884583514144283378E-01 2.439673412415888976E+00
        pair_coeff 25   48  4.884583514144283378E-01 2.439673412415888976E+00
        pair_coeff 26     48  0.000000000000000000E+00 0.000000000000000000E+00
        pair_coeff 27   48  3.599087420518621294E-01 2.567069049484753673E+00
        pair_coeff 28   48  9.350867603529200434E-02 2.752837906695117631E+00
        pair_coeff 29   48  1.190670747798516088E-01 3.320717983629539294E+00
        pair_coeff 30     48  1.669329915233766226E-01 3.655994398008439283E+00
        pair_coeff 31      48  1.129202297491380125E-01 3.394819218609366196E+00
        pair_coeff 32     48  1.873884136701188530E-01 3.688006813989214816E+00
        pair_coeff 33     48  2.857734654979058875E-01 3.782966154357451316E+00
        pair_coeff 34   48  1.686687429267214045E-01 3.757201298084295260E+00
        pair_coeff 35   48  1.240243973128351274E-01 3.528931143998987441E+00
        pair_coeff 36    48  2.442055020096505283E-02 3.497816198544354993E+00
        pair_coeff 37    48  1.377451779288986211E-01 4.006848715525531901E+00
        pair_coeff 38   48  1.091109023559897889E-01 3.650744921261102061E+00
        pair_coeff 39  48  1.872085631699220987E-01 3.672129175869041973E+00
        pair_coeff 40   48  4.807268097041665633E-02 2.938094334912183747E+00
        pair_coeff 41  48  1.904699024019997078E-01 3.735603130297924235E+00
        pair_coeff 42  48  1.557293507115795339E-01 3.832953806357374926E+00
        pair_coeff 43  48  2.190131156825951553E-01 3.210846382788003606E+00
        pair_coeff 44   48  7.979090944198904967E-02 3.846218434844132616E+00
        pair_coeff 45  48  1.779380888201725353E-01 3.676167785591720083E+00
        pair_coeff 46   48  9.848902438719817076E-02 3.473073479460133228E+00
        pair_coeff 47   48  1.065407743175067756E-01 3.629769666450928245E+00
        pair_coeff 48  48  1.170141066563726712E-01 3.919918490367800601E+00
        pair_coeff 1      49   2.491558874764578380E-01 2.855793572536012626E+00
        pair_coeff 2     49   2.893460544378792521E-01 2.785495171755656862E+00
        pair_coeff 3     49   2.030610329881481768E-01 2.954841833242532800E+00
        pair_coeff 4     49   2.265053522513252593E-01 2.901520161607548776E+00
        pair_coeff 5     49   1.776356026680076250E-01 3.058429331874637391E+00
        pair_coeff 6      49   1.762129657718276565E-01 3.044303251377937780E+00
        pair_coeff 7     49   1.192765986091082336E-01 3.248890049401691016E+00
        pair_coeff 8     49   1.762129657718276565E-01 3.044303251377937780E+00
        pair_coeff 9     49   1.457753106303604218E-01 3.142053380689358466E+00
        pair_coeff 10     49   1.762129657718276565E-01 3.044303251377937780E+00
        pair_coeff 11     49   1.762129657718276565E-01 3.044303251377937780E+00
        pair_coeff 12      49   1.160312939550487005E-01 3.252970697627771912E+00
        pair_coeff 13    49   1.842570398745426927E-02 4.429294764084048097E+00
        pair_coeff 14    49   6.786192061888589311E-02 3.851089232029210496E+00
        pair_coeff 15    49   1.411550573577402545E-01 3.468044538763741080E+00
        pair_coeff 16    49   2.051467578661674285E-01 3.327838076089515873E+00
        pair_coeff 17    49   2.476426393321955743E-01 3.310938448465757133E+00
        pair_coeff 18   49   1.525143844607987631E-01 3.418424600390641999E+00
        pair_coeff 19    49   1.561903225248004456E-01 3.324850221067261025E+00
        pair_coeff 20     49   7.579804515254030817E-02 2.648215562927745292E+00
        pair_coeff 21      49   0.000000000000000000E+00 0.000000000000000000E+00
        pair_coeff 22    49   0.000000000000000000E+00 0.000000000000000000E+00
        pair_coeff 23      49   3.041332416110918979E-01 3.126293772665116322E+00
        pair_coeff 24   49   6.434602513106866262E-01 2.118167472197251655E+00
        pair_coeff 25   49   6.434602513106866262E-01 2.118167472197251655E+00
        pair_coeff 26     49   0.000000000000000000E+00 0.000000000000000000E+00
        pair_coeff 27   49   4.741181493550025716E-01 2.228774610499382636E+00
        pair_coeff 28   49   1.231816714918823885E-01 2.390062407746226469E+00
        pair_coeff 29   49   1.568504861035088516E-01 2.883105903219756350E+00
        pair_coeff 30     49   2.199056365125826029E-01 3.174198797669536276E+00
        pair_coeff 31      49   1.487530701482332185E-01 2.947441901958409272E+00
        pair_coeff 32     49   2.468521531134249269E-01 3.201992541656678348E+00
        pair_coeff 33     49   3.764576148503470665E-01 3.284437915256962270E+00
        pair_coeff 34   49   2.221921918165813414E-01 3.262068412762940017E+00
        pair_coeff 35   49   1.633809098206280841E-01 3.063880240200058669E+00
        pair_coeff 36    49   3.216989396118666994E-02 3.036865695947625898E+00
        pair_coeff 37    49   1.814556892113898812E-01 3.478816702288478169E+00
        pair_coeff 38   49   1.437349334849495619E-01 3.169641109400411327E+00
        pair_coeff 39  49   2.466152308707815766E-01 3.188207296291331261E+00
        pair_coeff 40   49   6.332752687886390730E-02 2.550905305106105025E+00
        pair_coeff 41  49   2.509114869503538681E-01 3.243316502678857738E+00
        pair_coeff 42  49   2.051467578661674285E-01 3.327838076089515873E+00
        pair_coeff 43  49   2.223108962183115156E-01 2.911490578234520399E+00
        pair_coeff 44   49   1.051108625600908064E-01 3.339354660419386889E+00
        pair_coeff 45  49   2.344029680696937956E-01 3.191713688460029452E+00
        pair_coeff 46   49   1.297424277832890105E-01 3.015383630983031082E+00
        pair_coeff 47   49   1.403492298138912242E-01 3.151430023345263898E+00
        pair_coeff 48  49   1.541460520799295686E-01 3.403342348080735658E+00
        pair_coeff 49   49   2.030610329881481768E-01 2.954841833242532800E+00
        pair_coeff 1      50  1.791876903161000734E-01 3.217141909372776443E+00
        pair_coeff 2     50  2.080916157427709912E-01 3.137948534372799969E+00
        pair_coeff 3     50  1.628979002873637005E-01 3.268654360233876233E+00
        pair_coeff 4     50  1.628979002873637005E-01 3.268654360233876233E+00
        pair_coeff 5     50  1.277518010205411225E-01 3.445417510233855118E+00
        pair_coeff 6      50  1.267286703926965574E-01 3.429504033147082964E+00
        pair_coeff 7     50  1.267286703926965574E-01 3.429504033147082964E+00
        pair_coeff 8     50  1.267286703926965574E-01 3.429504033147082964E+00
        pair_coeff 9     50  1.267286703926965574E-01 3.429504033147082964E+00
        pair_coeff 10     50  1.267286703926965574E-01 3.429504033147082964E+00
        pair_coeff 11     50  1.267286703926965574E-01 3.429504033147082964E+00
        pair_coeff 12      50  8.344727382835046003E-02 3.664574520351796316E+00
        pair_coeff 13    50  1.325137998303192385E-02 4.989740838251888633E+00
        pair_coeff 14    50  4.880487047395847683E-02 4.338373993220113078E+00
        pair_coeff 15    50  1.015157577071503781E-01 3.906862014301811126E+00
        pair_coeff 16    50  1.475372470231036959E-01 3.748914993420465080E+00
        pair_coeff 17    50  1.780993939784465407E-01 3.729877027650093879E+00
        pair_coeff 18   50  1.096851475929681435E-01 3.850963582140682906E+00
        pair_coeff 19    50  1.123288051765993917E-01 3.745549080105277095E+00
        pair_coeff 20     50  5.451236484485043332E-02 2.983298707049888421E+00
        pair_coeff 21      50  0.000000000000000000E+00 0.000000000000000000E+00
        pair_coeff 22    50  0.000000000000000000E+00 0.000000000000000000E+00
        pair_coeff 23      50  2.187262507204020268E-01 3.521868952215817750E+00
        pair_coeff 24   50  4.627631215556714528E-01 2.386182744932990651E+00
        pair_coeff 25   50  4.627631215556714528E-01 2.386182744932990651E+00
        pair_coeff 26     50  0.000000000000000000E+00 0.000000000000000000E+00
        pair_coeff 27   50  3.409758323607505748E-01 2.510785189426758102E+00
        pair_coeff 28   50  8.858967543358814423E-02 2.692481001401170193E+00
        pair_coeff 29   50  1.128035809810071233E-01 3.247910114935789849E+00
        pair_coeff 30     50  1.581515231017961709E-01 3.575835480151661638E+00
        pair_coeff 31      50  1.069800892014212690E-01 3.320386655192049563E+00
        pair_coeff 32     50  1.775308928637313044E-01 3.607146013048481148E+00
        pair_coeff 33     50  2.707404235563790063E-01 3.700023337654205324E+00
        pair_coeff 34   50  1.597959657350944140E-01 3.674823384598274068E+00
        pair_coeff 35   50  1.175001247974426788E-01 3.451558131105934013E+00
        pair_coeff 36    50  2.313591324292333176E-02 3.421125391389411519E+00
        pair_coeff 37    50  1.304991271682363063E-01 3.918997197692981160E+00
        pair_coeff 38   50  1.033711505265553082E-01 3.570701099963447422E+00
        pair_coeff 39  50  1.773605033542809684E-01 3.591616497532251984E+00
        pair_coeff 40   50  4.554382956704794427E-02 2.873675619561858241E+00
        pair_coeff 41  50  1.804502806487379984E-01 3.653698763970068875E+00
        pair_coeff 42  50  1.475372470231036959E-01 3.748914993420465080E+00
        pair_coeff 43  50  2.074919853073012854E-01 3.140447486228195473E+00
        pair_coeff 44   50  7.559352853363882074E-02 3.761888790426231033E+00
        pair_coeff 45  50  1.685776999976196511E-01 3.595566559366237147E+00
        pair_coeff 46   50  9.330803380147963122E-02 3.396925164817679033E+00
        pair_coeff 47   50  1.009362234330945657E-01 3.550185734733046772E+00
        pair_coeff 48  50  1.108586087340911325E-01 3.833972947222050731E+00
        pair_coeff 49   50  1.460372374214344571E-01 3.328722912157391800E+00
        pair_coeff 50  50  1.050269192461420475E-01 3.749911789275832241E+00
        pair_coeff 1      51  2.533852259367075921E-01 2.858274758416932571E+00
        pair_coeff 2     51  2.942576076375654770E-01 2.787915280603157520E+00
        pair_coeff 3     51  2.065079265987836976E-01 2.957409074764294044E+00
        pair_coeff 4     51  2.303502053970068741E-01 2.904041075908715186E+00
        pair_coeff 5     51  1.806509080412127821E-01 3.061086572842267373E+00
        pair_coeff 6      51  1.404672559692889122E-01 3.173174020534739626E+00
        pair_coeff 7     51  1.213012792659237393E-01 3.251712767470937848E+00
        pair_coeff 8     51  8.895954313830781168E-02 3.424188379397632431E+00
        pair_coeff 9     51  1.482497981251104935E-01 3.144783276351368784E+00
        pair_coeff 10     51  1.270613958791100284E-01 3.226666915174094541E+00
        pair_coeff 11     51  1.375644548126654931E-01 3.184236878323198461E+00
        pair_coeff 12      51  1.180008866429317071E-01 3.255796961067685569E+00
        pair_coeff 13    51  1.873847419457483343E-02 4.433143047705374151E+00
        pair_coeff 14    51  6.901385418853510367E-02 3.854435156020554309E+00
        pair_coeff 15    51  1.435511175872953848E-01 3.471057663811270455E+00
        pair_coeff 16    51  2.086290559640636977E-01 3.330729386206531473E+00
        pair_coeff 17    51  2.518462909076551459E-01 3.313815075757705841E+00
        pair_coeff 18   51  1.551032654961799484E-01 3.421394614377313736E+00
        pair_coeff 19    51  1.588416013882605060E-01 3.327738935260058373E+00
        pair_coeff 20     51  7.708469180103937057E-02 2.650516399769581533E+00
        pair_coeff 21      51  0.000000000000000000E+00 0.000000000000000000E+00
        pair_coeff 22    51  0.000000000000000000E+00 0.000000000000000000E+00
        pair_coeff 23      51  3.092958024031092212E-01 3.129009975979999414E+00
        pair_coeff 24   51  2.082100572999197041E-01 2.565817813773293210E+00
        pair_coeff 25   51  1.145129867819162373E-01 2.834655654012085524E+00
        pair_coeff 26     51  0.000000000000000000E+00 0.000000000000000000E+00
        pair_coeff 27   51  4.821661475142233755E-01 2.230711026404406550E+00
        pair_coeff 28   51  1.252726394642434959E-01 2.392138954579879240E+00
        pair_coeff 29   51  1.595129710245168642E-01 2.885610818746235928E+00
        pair_coeff 30     51  2.236384616749672039E-01 3.176956622085050697E+00
        pair_coeff 31      51  1.512781041220645495E-01 2.950002714232202727E+00
        pair_coeff 32     51  2.510423864477937528E-01 3.204774513981840212E+00
        pair_coeff 33     51  3.828478578635327034E-01 3.287291518213585562E+00
        pair_coeff 34   51  2.259638304960239485E-01 3.264902580528488585E+00
        pair_coeff 35   51  1.661542465158737936E-01 3.066542217055081565E+00
        pair_coeff 36    51  3.271596722949368652E-02 3.039504201881492840E+00
        pair_coeff 37    51  1.845358392852482765E-01 3.481839186464868341E+00
        pair_coeff 38   51  1.461747862551426580E-01 3.172394973980771304E+00
        pair_coeff 39  51  2.508014425287490301E-01 3.190977291645715308E+00
        pair_coeff 40   51  6.440249062037527172E-02 2.553121596328082887E+00
        pair_coeff 41  51  2.551706261287441935E-01 3.246134378309362578E+00
        pair_coeff 42  51  2.086290559640636977E-01 3.330729386206531473E+00
        pair_coeff 43  51  2.934096839152270930E-01 2.790135478285444393E+00
        pair_coeff 44   51  1.068950845510619613E-01 3.342255976436936837E+00
        pair_coeff 45  51  2.383818806215697028E-01 3.194486730256854035E+00
        pair_coeff 46   51  1.319447624152647047E-01 3.018003472754054783E+00
        pair_coeff 47   51  1.427316113884563031E-01 3.154168065672212862E+00
        pair_coeff 48  51  1.567626301313670423E-01 3.406299258224103177E+00
        pair_coeff 49   51  2.065079265987836976E-01 2.957409074764294044E+00
        pair_coeff 50  51  1.485161710364928667E-01 3.331614991042423313E+00
        pair_coeff 51  51  2.100133300839540085E-01 2.959978546770596353E+00
        pair_coeff 1      52  2.017250681962091674E-01 3.056690580133286872E+00
        pair_coeff 2     52  1.238182113317307792E-01 3.315741788485744745E+00
        pair_coeff 3     52  1.857777726664354978E-01 3.098935224280011003E+00
        pair_coeff 4     52  1.857777726664354978E-01 3.098935224280011003E+00
        pair_coeff 5     52  1.625163928514463119E-01 3.207574185829374258E+00
        pair_coeff 6      52  1.263665486179660624E-01 3.325025553250206656E+00
        pair_coeff 7     52  1.091245350954258148E-01 3.407322754347013039E+00
        pair_coeff 8     52  8.002940155303392422E-02 3.588052148088892501E+00
        pair_coeff 9     52  1.333678457168430698E-01 3.295276176356722875E+00
        pair_coeff 10     52  1.143064264267728281E-01 3.381078338392825344E+00
        pair_coeff 11     52  1.237551431273730129E-01 3.336617821622679614E+00
        pair_coeff 12      52  1.061554500800334505E-01 3.411602396114444158E+00
        pair_coeff 13    52  1.685742555441499188E-02 4.645290116282322579E+00
        pair_coeff 14    52  6.208594665318631356E-02 4.038888287934027765E+00
        pair_coeff 15    52  1.291408389420262981E-01 3.637164351620559177E+00
        pair_coeff 16    52  1.876859739423346884E-01 3.490120695691245611E+00
        pair_coeff 17    52  2.265648769503596782E-01 3.472396954700678773E+00
        pair_coeff 18   52  1.395333325541259217E-01 3.585124688068666021E+00
        pair_coeff 19    52  1.428963982095136920E-01 3.486987137383879443E+00
        pair_coeff 20     52  6.934659887074805240E-02 2.777356268994485955E+00
        pair_coeff 21      52  0.000000000000000000E+00 0.000000000000000000E+00
        pair_coeff 22    52  0.000000000000000000E+00 0.000000000000000000E+00
        pair_coeff 23      52  2.782473593721414562E-01 3.278748048225554435E+00
        pair_coeff 24   52  5.886930177039987333E-01 2.221460288218898071E+00
        pair_coeff 25   52  5.886930177039987333E-01 2.221460288218898071E+00
        pair_coeff 26     52  0.000000000000000000E+00 0.000000000000000000E+00
        pair_coeff 27   52  4.337642356672424815E-01 2.337461203423603529E+00
        pair_coeff 28   52  1.126972330748762380E-01 2.506614228980403869E+00
        pair_coeff 29   52  1.435003728738950268E-01 3.023701078785963059E+00
        pair_coeff 30     52  2.011886709474526580E-01 3.328989170351303706E+00
        pair_coeff 31      52  9.673967369602196054E-02 3.272112746045770404E+00
        pair_coeff 32     52  2.258416718780438259E-01 3.358138281240213630E+00
        pair_coeff 33     52  3.444159431332070587E-01 3.444604118245261581E+00
        pair_coeff 34   52  2.032806092440548607E-01 3.421143762957048029E+00
        pair_coeff 35   52  1.494749685650599014E-01 3.213290908675224156E+00
        pair_coeff 36    52  2.943179771656875832E-02 3.184958995335595677E+00
        pair_coeff 37    52  1.660113379868037031E-01 3.648461821628244284E+00
        pair_coeff 38   52  1.315011324637096746E-01 3.324209225597718920E+00
        pair_coeff 39  52  2.256249149459740866E-01 3.343680795916493587E+00
        pair_coeff 40   52  5.793749159503105983E-02 2.675300659027595618E+00
        pair_coeff 41  52  2.295555011028669046E-01 3.401477412620344865E+00
        pair_coeff 42  52  1.876859739423346884E-01 3.490120695691245611E+00
        pair_coeff 43  52  2.033892102840210714E-01 3.053469937559857073E+00
        pair_coeff 44   52  9.616449617195252375E-02 3.502198888317909375E+00
        pair_coeff 45  52  2.144520820837692021E-01 3.347358177927088452E+00
        pair_coeff 46   52  1.186995796250189389E-01 3.162429353626820649E+00
        pair_coeff 47   52  1.284035983003997405E-01 3.305110072670552235E+00
        pair_coeff 48  52  1.410261230297450152E-01 3.569306947024517562E+00
        pair_coeff 49   52  1.857777726664354978E-01 3.098935224280011003E+00
        pair_coeff 50  52  1.336074789696210519E-01 3.491048680948393823E+00
        pair_coeff 51  52  1.889312886718397255E-01 3.101627657794223669E+00
        pair_coeff 52  52  1.699655532576562489E-01 3.250055355330133011E+00
        pair_coeff 1      53   2.517150719017874350E-01 3.216286733597559344E+00
        pair_coeff 2     53   8.204532982457217460E-02 3.877013547662570669E+00
        pair_coeff 3     53   2.288318835470794788E-01 3.267785491497223305E+00
        pair_coeff 4     53   2.288318835470794788E-01 3.267785491497223305E+00
        pair_coeff 5     53   1.794601723072659361E-01 3.444501654585188533E+00
        pair_coeff 6      53   1.780229229119614787E-01 3.428592407594721170E+00
        pair_coeff 7     53   1.780229229119614787E-01 3.428592407594721170E+00
        pair_coeff 8     53   1.780229229119614787E-01 3.428592407594721170E+00
        pair_coeff 9     53   1.780229229119614787E-01 3.428592407594721170E+00
        pair_coeff 10     53   1.780229229119614787E-01 3.428592407594721170E+00
        pair_coeff 11     53   1.780229229119614787E-01 3.428592407594721170E+00
        pair_coeff 12      53   1.172230999498745652E-01 3.663600408719620116E+00
        pair_coeff 13    53   1.861496210673063006E-02 4.988414472922134912E+00
        pair_coeff 14    53   6.855895881485152277E-02 4.337220773235620719E+00
        pair_coeff 15    53   1.426049200441300291E-01 3.905823498176049124E+00
        pair_coeff 16    53   2.072539060975635561E-01 3.747918462531858008E+00
        pair_coeff 17    53   2.501862805523388245E-01 3.728885557404626905E+00
        pair_coeff 18   53   1.540809235512614617E-01 3.849939924851243589E+00
        pair_coeff 19    53   1.577946187139902257E-01 3.744553443938634096E+00
        pair_coeff 20     53   7.657659860592054557E-02 2.982505691119483604E+00
        pair_coeff 21      53   0.000000000000000000E+00 0.000000000000000000E+00
        pair_coeff 22    53   0.000000000000000000E+00 0.000000000000000000E+00
        pair_coeff 23      53   3.072571214561132247E-01 3.520932774360979955E+00
        pair_coeff 24   53   6.500695009260647472E-01 2.385548453460561547E+00
        pair_coeff 25   53   6.500695009260647472E-01 2.385548453460561547E+00
        pair_coeff 26     53   0.000000000000000000E+00 0.000000000000000000E+00
        pair_coeff 27   53   4.789880153488779158E-01 2.510117776321816319E+00
        pair_coeff 28   53   1.244469220077783211E-01 2.691765290191502125E+00
        pair_coeff 29   53   1.584615631091823018E-01 3.247046760402909182E+00
        pair_coeff 30     53   2.221643793651205678E-01 3.574884956996347896E+00
        pair_coeff 31      53   1.502809752047785663E-01 3.319504035055336644E+00
        pair_coeff 32     53   2.493876749186909880E-01 3.606187166974876845E+00
        pair_coeff 33     53   3.803243686103310317E-01 3.699039803071263677E+00
        pair_coeff 34   53   2.244744208358758208E-01 3.673846548628572073E+00
        pair_coeff 35   53   1.650590635421556873E-01 3.450640643166755339E+00
        pair_coeff 36    53   3.250032440946476475E-02 3.420215993034873669E+00
        pair_coeff 37    53   1.833194965587523484E-01 3.917955455811204413E+00
        pair_coeff 38   53   1.452112951590650569E-01 3.569751941621275737E+00
        pair_coeff 39  53   2.491483191485096838E-01 3.590661779490871286E+00
        pair_coeff 40   53   6.397799041847561374E-02 2.872911743474042101E+00
        pair_coeff 41  53   2.534887038728330655E-01 3.652727543314932213E+00
        pair_coeff 42  53   2.072539060975635561E-01 3.747918462531858008E+00
        pair_coeff 43  53   2.914757141438480414E-01 3.139612697248032713E+00
        pair_coeff 44   53   1.061905002323981356E-01 3.760888810862612175E+00
        pair_coeff 45  53   2.368106190837268310E-01 3.594610791325419719E+00
        pair_coeff 46   53   1.310750665736078457E-01 3.396022199330606561E+00
        pair_coeff 47   53   1.417908155082314992E-01 3.549242029754096084E+00
        pair_coeff 48  53   1.557293507115795339E-01 3.832953806357374926E+00
        pair_coeff 49   53   2.051467578661674285E-01 3.327838076089515873E+00
        pair_coeff 50  53   1.475372470231036959E-01 3.748914993420465080E+00
        pair_coeff 51  53   2.086290559640636977E-01 3.330729386206531473E+00
        pair_coeff 52  53   1.876859739423346884E-01 3.490120695691245611E+00
        pair_coeff 53   53   2.072539060975635561E-01 3.747918462531858008E+00
        pair_coeff 1      54      5.058019451083491935E-01 3.259627155281799471E+00
        pair_coeff 2     54      5.873904832288343592E-01 3.179387960698472515E+00
        pair_coeff 3     54      4.598199500984992416E-01 3.311819874282714959E+00
        pair_coeff 4     54      4.598199500984992416E-01 3.311819874282714959E+00
        pair_coeff 5     54      3.606113195236524960E-01 3.490917340301991079E+00
        pair_coeff 6      54      3.577232781590320432E-01 3.474793711469867041E+00
        pair_coeff 7     54      3.577232781590320432E-01 3.474793711469867041E+00
        pair_coeff 8     54      3.577232781590320432E-01 3.474793711469867041E+00
        pair_coeff 9     54      3.577232781590320432E-01 3.474793711469867041E+00
        pair_coeff 10     54      3.577232781590320432E-01 3.474793711469867041E+00
        pair_coeff 11     54      3.577232781590320432E-01 3.474793711469867041E+00
        pair_coeff 12      54      2.355507420287134279E-01 3.712968515405449921E+00
        pair_coeff 13    54      3.740532488009395973E-02 5.055634843709905013E+00
        pair_coeff 14    54      1.377639187878478000E-01 4.395666114966524596E+00
        pair_coeff 15    54      2.865535440344418872E-01 3.958455633136796159E+00
        pair_coeff 16    54      4.164606753319582411E-01 3.798422780106363472E+00
        pair_coeff 17    54      5.027299572755441481E-01 3.779133400913722962E+00
        pair_coeff 18   54      3.096136844230243934E-01 3.901819012016897847E+00
        pair_coeff 19    54      3.170760672777966915E-01 3.795012416885348738E+00
        pair_coeff 20     54      1.538747450918169224E-01 3.022695843626246770E+00
        pair_coeff 21      54      0.000000000000000000E+00 0.000000000000000000E+00
        pair_coeff 22    54      0.000000000000000000E+00 0.000000000000000000E+00
        pair_coeff 23      54      6.174093927181751873E-01 3.568378392181247971E+00
        pair_coeff 24   54      1.306264323148313311E+00 2.417694429390239375E+00
        pair_coeff 25   54      1.306264323148313311E+00 2.417694429390239375E+00
        pair_coeff 26     54      0.000000000000000000E+00 0.000000000000000000E+00
        pair_coeff 27   54      9.624893257944396874E-01 2.543942360979170036E+00
        pair_coeff 28   54      2.500664530681778186E-01 2.728037629200720460E+00
        pair_coeff 29   54      3.184162403942434882E-01 3.290801682610015710E+00
        pair_coeff 30     54      4.464221167515604050E-01 3.623057596546916947E+00
        pair_coeff 31      54      3.019779824746237074E-01 3.364235340619288195E+00
        pair_coeff 32     54      5.011252210957767295E-01 3.654781613128054829E+00
        pair_coeff 33     54      7.642323678189105740E-01 3.748885466151363310E+00
        pair_coeff 34   54      4.510639662060295652E-01 3.723352725101418237E+00
        pair_coeff 35   54      3.316734066284257043E-01 3.497139053583150137E+00
        pair_coeff 36    54      6.530688519666234815E-02 3.466304422228967397E+00
        pair_coeff 37    54      3.683663327553086675E-01 3.970751072514505431E+00
        pair_coeff 38   54      2.917908529999159173E-01 3.617855412260831294E+00
        pair_coeff 39  54      5.006442542104175830E-01 3.639047016423571534E+00
        pair_coeff 40   54      1.285588175284727575E-01 2.911625084894475357E+00
        pair_coeff 41  54      5.093659212107068956E-01 3.701949134901025840E+00
        pair_coeff 42  54      4.164606753319582411E-01 3.798422780106363472E+00
        pair_coeff 43  54      5.856978767776226391E-01 3.181919913455625970E+00
        pair_coeff 44   54      2.133815872199037178E-01 3.811567907744004557E+00
        pair_coeff 45  54      4.758526013158087542E-01 3.643049242368777918E+00
        pair_coeff 46   54      2.633851963143667985E-01 3.441784609948579376E+00
        pair_coeff 47   54      2.849176640107791147E-01 3.597069123222504494E+00
        pair_coeff 48  54      3.129260711536197559E-01 3.884604000517125399E+00
        pair_coeff 49   54      4.122265241306839467E-01 3.372681685338640545E+00
        pair_coeff 50  54      2.964646731576463523E-01 3.799432739545504756E+00
        pair_coeff 51  54      4.192239325022028562E-01 3.375611956720639295E+00
        pair_coeff 52  54      3.771404309338606820E-01 3.537151111574271312E+00
        pair_coeff 53   54      4.164606753319582411E-01 3.798422780106363472E+00
        pair_coeff 54      54      8.368454779149256950E-01 3.849607658402551813E+00
        pair_coeff 1      55  3.175870057215742226E-01 3.004156156701421221E+00
        pair_coeff 2     55  3.688154752311860185E-01 2.930205652875953248E+00
        pair_coeff 3     55  2.887154597468856720E-01 3.052258307853131569E+00
        pair_coeff 4     55  2.887154597468856720E-01 3.052258307853131569E+00
        pair_coeff 5     55  2.264235444414708642E-01 3.217319135230157112E+00
        pair_coeff 6      55  2.246101777309229275E-01 3.202459184531222913E+00
        pair_coeff 7     55  2.246101777309229275E-01 3.202459184531222913E+00
        pair_coeff 8     55  2.246101777309229275E-01 3.202459184531222913E+00
        pair_coeff 9     55  2.246101777309229275E-01 3.202459184531222913E+00
        pair_coeff 10     55  2.246101777309229275E-01 3.202459184531222913E+00
        pair_coeff 11     55  2.246101777309229275E-01 3.202459184531222913E+00
        pair_coeff 12      55  1.478995001499436579E-01 3.421967204782814687E+00
        pair_coeff 13    55  2.348635714353968298E-02 4.659402998639063931E+00
        pair_coeff 14    55  8.650032070345334279E-02 4.051158857442665351E+00
        pair_coeff 15    55  1.799235509252720133E-01 3.648214441350505322E+00
        pair_coeff 16    55  2.614906885166861650E-01 3.500724051252714020E+00
        pair_coeff 17    55  3.156581412186418856E-01 3.482946463663709302E+00
        pair_coeff 18   55  1.944027379041995962E-01 3.596016675800414841E+00
        pair_coeff 19    55  1.990882790519060419E-01 3.497580972864009485E+00
        pair_coeff 20     55  9.661611629313200666E-02 2.785794170892084587E+00
        pair_coeff 21      55  0.000000000000000000E+00 0.000000000000000000E+00
        pair_coeff 22    55  0.000000000000000000E+00 0.000000000000000000E+00
        pair_coeff 23      55  3.876639902911756530E-01 3.288709231343011297E+00
        pair_coeff 24   55  8.201877811694162634E-01 2.228209319371530661E+00
        pair_coeff 25   55  8.201877811694162634E-01 2.228209319371530661E+00
        pair_coeff 26     55  0.000000000000000000E+00 0.000000000000000000E+00
        pair_coeff 27   55  6.043355625145997445E-01 2.344562657617333290E+00
        pair_coeff 28   55  1.570137418991634226E-01 2.514229587944387223E+00
        pair_coeff 29   55  1.999297577597621556E-01 3.032887402253098053E+00
        pair_coeff 30     55  2.803031200614393148E-01 3.339102991308009027E+00
        pair_coeff 31      55  1.896083717657784939E-01 3.100565748673854038E+00
        pair_coeff 32     55  3.146505465202936724E-01 3.368340660276711862E+00
        pair_coeff 33     55  4.798523843539687084E-01 3.455069189633579008E+00
        pair_coeff 34   55  2.832176819438365079E-01 3.431537559306359508E+00
        pair_coeff 35   55  2.082537742436552652E-01 3.223053226084240830E+00
        pair_coeff 36    55  4.100541392375962879E-02 3.194635237397348781E+00
        pair_coeff 37    55  2.312928247109353463E-01 3.659546234266159548E+00
        pair_coeff 38   55  1.832119947291552531E-01 3.334308524577047184E+00
        pair_coeff 39  55  3.143485531522378085E-01 3.353839251584496139E+00
        pair_coeff 40   55  8.072054746493292909E-02 2.683428505195357694E+00
        pair_coeff 41  55  3.198247837881820765E-01 3.411811460518701100E+00
        pair_coeff 42  55  2.614906885166861650E-01 3.500724051252714020E+00
        pair_coeff 43  55  3.677527078379324021E-01 2.932539165606559806E+00
        pair_coeff 44   55  1.339797523846405214E-01 3.512838938705180603E+00
        pair_coeff 45  55  2.987821701324951396E-01 3.357527805870319515E+00
        pair_coeff 46   55  1.653764218541119713E-01 3.172037148255793415E+00
        pair_coeff 47   55  1.788964013789737795E-01 3.315151346404604737E+00
        pair_coeff 48  55  1.964825460064327234E-01 3.580150878787119240E+00
        pair_coeff 49   55  2.588321155025055109E-01 3.108350117033022997E+00
        pair_coeff 50  55  1.861466306346315491E-01 3.501654855827156965E+00
        pair_coeff 51  55  2.632257047206049139E-01 3.111050730444828272E+00
        pair_coeff 52  55  2.368019762580622356E-01 3.259929367013902457E+00
        pair_coeff 53   55  2.614906885166861650E-01 3.500724051252714020E+00
        pair_coeff 54      55  5.254452897086219210E-01 3.547897350510067938E+00
        pair_coeff 55  55  3.299208273968177729E-01 3.269833376988799500E+00
        pair_coeff 1      56      1.423703976828447626E-01 3.143928959384971744E+00
        pair_coeff 2     56      1.653354984123153737E-01 3.066537799135407028E+00
        pair_coeff 3     56      1.294276342571315797E-01 3.194269134171567437E+00
        pair_coeff 4     56      1.294276342571315797E-01 3.194269134171567437E+00
        pair_coeff 5     56      1.015029251390483361E-01 3.367009660356621747E+00
        pair_coeff 6      56      1.006900148654086141E-01 3.351458328501519368E+00
        pair_coeff 7     56      1.006900148654086141E-01 3.351458328501519368E+00
        pair_coeff 8     56      1.006900148654086141E-01 3.351458328501519368E+00
        pair_coeff 9     56      1.006900148654086141E-01 3.351458328501519368E+00
        pair_coeff 10     56      1.006900148654086141E-01 3.351458328501519368E+00
        pair_coeff 11     56      1.006900148654086141E-01 3.351458328501519368E+00
        pair_coeff 12      56      6.630154972997068241E-02 3.581179283634555510E+00
        pair_coeff 13    56      1.052864867392752299E-02 4.876188605638604123E+00
        pair_coeff 14    56      3.877704325548127218E-02 4.239645007324696735E+00
        pair_coeff 15    56      8.065754277175206377E-02 3.817953007077415251E+00
        pair_coeff 16    56      1.172230999498745652E-01 3.663600408719620116E+00
        pair_coeff 17    56      1.415057111515590771E-01 3.644995692608442361E+00
        pair_coeff 18   56      8.714838644978782634E-02 3.763326663382849269E+00
        pair_coeff 19    56      8.924885764206048899E-02 3.660311093966183371E+00
        pair_coeff 20     56      4.331183156556572822E-02 2.915407359639444529E+00
        pair_coeff 21      56      0.000000000000000000E+00 0.000000000000000000E+00
        pair_coeff 22    56      0.000000000000000000E+00 0.000000000000000000E+00
        pair_coeff 23      56      1.737850588051431666E-01 3.441721286142719993E+00
        pair_coeff 24   56      3.676802214070164498E-01 2.331880049283297840E+00
        pair_coeff 25   56      3.676802214070164498E-01 2.331880049283297840E+00
        pair_coeff 26     56      0.000000000000000000E+00 0.000000000000000000E+00
        pair_coeff 27   56      2.709162932331031781E-01 2.453646898458591963E+00
        pair_coeff 28   56      7.038735361689542336E-02 2.631207833337182223E+00
        pair_coeff 29   56      8.962608232733035307E-02 3.173996968575379718E+00
        pair_coeff 30     56      1.256564845410435005E-01 3.494459690227617266E+00
        pair_coeff 31      56      8.499913033581890653E-02 3.244824150032262100E+00
        pair_coeff 32     56      1.410540186851716171E-01 3.525057684932574986E+00
        pair_coeff 33     56      2.151119962679723108E-01 3.615821387226038297E+00
        pair_coeff 34   56      1.269630472365963769E-01 3.591194913038851411E+00
        pair_coeff 35   56      9.335763782481623640E-02 3.373010538257620983E+00
        pair_coeff 36    56      1.838222906573640236E-02 3.343270360670348218E+00
        pair_coeff 37    56      1.036857643481583074E-01 3.829812028396864854E+00
        pair_coeff 38   56      8.213171219204309925E-02 3.489442153850004225E+00
        pair_coeff 39  56      1.409186387258750672E-01 3.509881576780662371E+00
        pair_coeff 40   56      3.618604110595938922E-02 2.808278980140014092E+00
        pair_coeff 41  56      1.433735664130799115E-01 3.570551028367321855E+00
        pair_coeff 42  56      1.172230999498745652E-01 3.663600408719620116E+00
        pair_coeff 43  56      1.648590726968548470E-01 3.068979881992677683E+00
        pair_coeff 44   56      6.006149585721085732E-02 3.676278959205930619E+00
        pair_coeff 45  56      1.339404182663543053E-01 3.513741746503062924E+00
        pair_coeff 46   56      7.413624147890124361E-02 3.319620862051439580E+00
        pair_coeff 47   56      8.019708410451541203E-02 3.469393659665676477E+00
        pair_coeff 48  56      8.808073916348332921E-02 3.746722686727856910E+00
        pair_coeff 49   56      1.160312939550487005E-01 3.252970697627771912E+00
        pair_coeff 50  56      8.344727382835046003E-02 3.664574520351796316E+00
        pair_coeff 51  56      1.180008866429317071E-01 3.255796961067685569E+00
        pair_coeff 52  56      1.061554500800334505E-01 3.411602396114444158E+00
        pair_coeff 53   56      1.172230999498745652E-01 3.663600408719620116E+00
        pair_coeff 54      56      2.355507420287134279E-01 3.712968515405449921E+00
        pair_coeff 55  56      1.478995001499436579E-01 3.421967204782814687E+00
        pair_coeff 56      56      6.630154972997068241E-02 3.581179283634555510E+00
        pair_coeff 1      57     3.731714874568097806E-01 3.021498329079459921E+00
        pair_coeff 2     57     4.333660288663451210E-01 2.947120929208018492E+00
        pair_coeff 3     57     3.392468067789179420E-01 3.069878160802191225E+00
        pair_coeff 4     57     3.392468067789179420E-01 3.069878160802191225E+00
        pair_coeff 5     57     2.660524812168876263E-01 3.235891839220214727E+00
        pair_coeff 6      57     2.639217367579247409E-01 3.220946106087509531E+00
        pair_coeff 7     57     2.639217367579247409E-01 3.220946106087509531E+00
        pair_coeff 8     57     2.639217367579247409E-01 3.220946106087509531E+00
        pair_coeff 9     57     2.639217367579247409E-01 3.220946106087509531E+00
        pair_coeff 10     57     2.639217367579247409E-01 3.220946106087509531E+00
        pair_coeff 11     57     2.639217367579247409E-01 3.220946106087509531E+00
        pair_coeff 12      57     1.737850588051431666E-01 3.441721286142719993E+00
        pair_coeff 13    57     2.759696924716207450E-02 4.686300458613273712E+00
        pair_coeff 14    57     1.016397168676915763E-01 4.074545090238809841E+00
        pair_coeff 15    57     2.114139996840987690E-01 3.669274586167817986E+00
        pair_coeff 16    57     3.072571214561132247E-01 3.520932774360979955E+00
        pair_coeff 17    57     3.709050306349177539E-01 3.503052561617904459E+00
        pair_coeff 18   57     2.284273523866607036E-01 3.616775497184223198E+00
        pair_coeff 19    57     2.339329629063890137E-01 3.517771551839822930E+00
        pair_coeff 20     57     1.135259918695059600E-01 2.801875799210098883E+00
        pair_coeff 21      57     0.000000000000000000E+00 0.000000000000000000E+00
        pair_coeff 22    57     0.000000000000000000E+00 0.000000000000000000E+00
        pair_coeff 23      57     4.555134350088204109E-01 3.307694050845144673E+00
        pair_coeff 24   57     9.637380899683938296E-01 2.241072162744267793E+00
        pair_coeff 25   57     9.637380899683938296E-01 2.241072162744267793E+00
        pair_coeff 26     57     0.000000000000000000E+00 0.000000000000000000E+00
        pair_coeff 27   57     7.101071414248384395E-01 2.358097177009347067E+00
        pair_coeff 28   57     1.844944867392919463E-01 2.528743548150760745E+00
        pair_coeff 29   57     2.349217182881164212E-01 3.050395432258705242E+00
        pair_coeff 30     57     3.293621287006147091E-01 3.358378720212484847E+00
        pair_coeff 31      57     2.227938701879095817E-01 3.118464467275081642E+00
        pair_coeff 32     57     3.697210854307304562E-01 3.387785170252723521E+00
        pair_coeff 33     57     5.638367590708479593E-01 3.475014359704387434E+00
        pair_coeff 34   57     3.327868009112045500E-01 3.451346887707100741E+00
        pair_coeff 35   57     2.447026147257768958E-01 3.241659031413521852E+00
        pair_coeff 36    57     4.818223363057468761E-02 3.213076993445320717E+00
        pair_coeff 37    57     2.717739891131936147E-01 3.680671794426697563E+00
        pair_coeff 38   57     2.152779911056781903E-01 3.353556576335538608E+00
        pair_coeff 39  57     3.693662367992399664E-01 3.373200048891741964E+00
        pair_coeff 40   57     9.484836036467202136E-02 2.698919204504523606E+00
        pair_coeff 41  57     3.758009242872520916E-01 3.431506915542800851E+00
        pair_coeff 42  57     3.072571214561132247E-01 3.520932774360979955E+00
        pair_coeff 43  57     4.321172545720066149E-01 2.949467912669808012E+00
        pair_coeff 44   57     1.574290590790217992E-01 3.533117597747393646E+00
        pair_coeff 45  57     3.510754056218069463E-01 3.376909896193278637E+00
        pair_coeff 46   57     1.943208135778947410E-01 3.190348451711801925E+00
        pair_coeff 47   57     2.102070771175983122E-01 3.334288809009665400E+00
        pair_coeff 48  57     2.308711711486143847E-01 3.600818111261308019E+00
        pair_coeff 49   57     3.041332416110918979E-01 3.126293772665116322E+00
        pair_coeff 50  57     2.187262507204020268E-01 3.521868952215817750E+00
        pair_coeff 51  57     3.092958024031092212E-01 3.129009975979999414E+00
        pair_coeff 52  57     2.782473593721414562E-01 3.278748048225554435E+00
        pair_coeff 53   57     3.072571214561132247E-01 3.520932774360979955E+00
        pair_coeff 54      57     6.174093927181751873E-01 3.568378392181247971E+00
        pair_coeff 55  57     3.876639902911756530E-01 3.288709231343011297E+00
        pair_coeff 56      57     1.737850588051431666E-01 3.441721286142719993E+00
        pair_coeff 57     57     4.555134350088204109E-01 3.307694050845144673E+00
        pair_coeff 1      58   0.000000000000000000E+00 0.000000000000000000E+00
        pair_coeff 2     58   0.000000000000000000E+00 0.000000000000000000E+00
        pair_coeff 3     58   0.000000000000000000E+00 0.000000000000000000E+00
        pair_coeff 4     58   0.000000000000000000E+00 0.000000000000000000E+00
        pair_coeff 5     58   0.000000000000000000E+00 0.000000000000000000E+00
        pair_coeff 6      58   0.000000000000000000E+00 0.000000000000000000E+00
        pair_coeff 7     58   0.000000000000000000E+00 0.000000000000000000E+00
        pair_coeff 8     58   0.000000000000000000E+00 0.000000000000000000E+00
        pair_coeff 9     58   0.000000000000000000E+00 0.000000000000000000E+00
        pair_coeff 10     58   0.000000000000000000E+00 0.000000000000000000E+00
        pair_coeff 11     58   0.000000000000000000E+00 0.000000000000000000E+00
        pair_coeff 12      58   0.000000000000000000E+00 0.000000000000000000E+00
        pair_coeff 13    58   0.000000000000000000E+00 0.000000000000000000E+00
        pair_coeff 14    58   0.000000000000000000E+00 0.000000000000000000E+00
        pair_coeff 15    58   0.000000000000000000E+00 0.000000000000000000E+00
        pair_coeff 16    58   0.000000000000000000E+00 0.000000000000000000E+00
        pair_coeff 17    58   0.000000000000000000E+00 0.000000000000000000E+00
        pair_coeff 18   58   0.000000000000000000E+00 0.000000000000000000E+00
        pair_coeff 19    58   0.000000000000000000E+00 0.000000000000000000E+00
        pair_coeff 20     58   0.000000000000000000E+00 0.000000000000000000E+00
        pair_coeff 21      58   0.000000000000000000E+00 0.000000000000000000E+00
        pair_coeff 22    58   0.000000000000000000E+00 0.000000000000000000E+00
        pair_coeff 23      58   0.000000000000000000E+00 0.000000000000000000E+00
        pair_coeff 24   58   0.000000000000000000E+00 0.000000000000000000E+00
        pair_coeff 25   58   0.000000000000000000E+00 0.000000000000000000E+00
        pair_coeff 26     58   0.000000000000000000E+00 0.000000000000000000E+00
        pair_coeff 27   58   0.000000000000000000E+00 0.000000000000000000E+00
        pair_coeff 28   58   0.000000000000000000E+00 0.000000000000000000E+00
        pair_coeff 29   58   0.000000000000000000E+00 0.000000000000000000E+00
        pair_coeff 30     58   0.000000000000000000E+00 0.000000000000000000E+00
        pair_coeff 31      58   0.000000000000000000E+00 0.000000000000000000E+00
        pair_coeff 32     58   0.000000000000000000E+00 0.000000000000000000E+00
        pair_coeff 33     58   0.000000000000000000E+00 0.000000000000000000E+00
        pair_coeff 34   58   0.000000000000000000E+00 0.000000000000000000E+00
        pair_coeff 35   58   0.000000000000000000E+00 0.000000000000000000E+00
        pair_coeff 36    58   0.000000000000000000E+00 0.000000000000000000E+00
        pair_coeff 37    58   0.000000000000000000E+00 0.000000000000000000E+00
        pair_coeff 38   58   0.000000000000000000E+00 0.000000000000000000E+00
        pair_coeff 39  58   0.000000000000000000E+00 0.000000000000000000E+00
        pair_coeff 40   58   0.000000000000000000E+00 0.000000000000000000E+00
        pair_coeff 41  58   0.000000000000000000E+00 0.000000000000000000E+00
        pair_coeff 42  58   0.000000000000000000E+00 0.000000000000000000E+00
        pair_coeff 43  58   0.000000000000000000E+00 0.000000000000000000E+00
        pair_coeff 44   58   0.000000000000000000E+00 0.000000000000000000E+00
        pair_coeff 45  58   0.000000000000000000E+00 0.000000000000000000E+00
        pair_coeff 46   58   0.000000000000000000E+00 0.000000000000000000E+00
        pair_coeff 47   58   0.000000000000000000E+00 0.000000000000000000E+00
        pair_coeff 48  58   0.000000000000000000E+00 0.000000000000000000E+00
        pair_coeff 49   58   0.000000000000000000E+00 0.000000000000000000E+00
        pair_coeff 50  58   0.000000000000000000E+00 0.000000000000000000E+00
        pair_coeff 51  58   0.000000000000000000E+00 0.000000000000000000E+00
        pair_coeff 52  58   0.000000000000000000E+00 0.000000000000000000E+00
        pair_coeff 53   58   0.000000000000000000E+00 0.000000000000000000E+00
        pair_coeff 54      58   0.000000000000000000E+00 0.000000000000000000E+00
        pair_coeff 55  58   0.000000000000000000E+00 0.000000000000000000E+00
        pair_coeff 56      58   0.000000000000000000E+00 0.000000000000000000E+00
        pair_coeff 57     58   0.000000000000000000E+00 0.000000000000000000E+00
        pair_coeff 58   58   0.000000000000000000E+00 0.000000000000000000E+00
        pair_coeff 1      59  3.175870057215742226E-01 3.004156156701421221E+00
        pair_coeff 2     59  3.688154752311860185E-01 2.930205652875953248E+00
        pair_coeff 3     59  2.887154597468856720E-01 3.052258307853131569E+00
        pair_coeff 4     59  2.887154597468856720E-01 3.052258307853131569E+00
        pair_coeff 5     59  2.264235444414708642E-01 3.217319135230157112E+00
        pair_coeff 6      59  2.246101777309229275E-01 3.202459184531222913E+00
        pair_coeff 7     59  2.246101777309229275E-01 3.202459184531222913E+00
        pair_coeff 8     59  2.246101777309229275E-01 3.202459184531222913E+00
        pair_coeff 9     59  2.246101777309229275E-01 3.202459184531222913E+00
        pair_coeff 10     59  2.246101777309229275E-01 3.202459184531222913E+00
        pair_coeff 11     59  2.246101777309229275E-01 3.202459184531222913E+00
        pair_coeff 12      59  1.478995001499436579E-01 3.421967204782814687E+00
        pair_coeff 13    59  2.348635714353968298E-02 4.659402998639063931E+00
        pair_coeff 14    59  8.650032070345334279E-02 4.051158857442665351E+00
        pair_coeff 15    59  1.799235509252720133E-01 3.648214441350505322E+00
        pair_coeff 16    59  2.614906885166861650E-01 3.500724051252714020E+00
        pair_coeff 17    59  3.156581412186418856E-01 3.482946463663709302E+00
        pair_coeff 18   59  1.944027379041995962E-01 3.596016675800414841E+00
        pair_coeff 19    59  1.990882790519060419E-01 3.497580972864009485E+00
        pair_coeff 20     59  9.661611629313200666E-02 2.785794170892084587E+00
        pair_coeff 21      59  0.000000000000000000E+00 0.000000000000000000E+00
        pair_coeff 22    59  0.000000000000000000E+00 0.000000000000000000E+00
        pair_coeff 23      59  3.876639902911756530E-01 3.288709231343011297E+00
        pair_coeff 24   59  8.201877811694162634E-01 2.228209319371530661E+00
        pair_coeff 25   59  8.201877811694162634E-01 2.228209319371530661E+00
        pair_coeff 26     59  0.000000000000000000E+00 0.000000000000000000E+00
        pair_coeff 27   59  6.043355625145997445E-01 2.344562657617333290E+00
        pair_coeff 28   59  1.570137418991634226E-01 2.514229587944387223E+00
        pair_coeff 29   59  1.999297577597621556E-01 3.032887402253098053E+00
        pair_coeff 30     59  2.803031200614393148E-01 3.339102991308009027E+00
        pair_coeff 31      59  1.896083717657784939E-01 3.100565748673854038E+00
        pair_coeff 32     59  3.146505465202936724E-01 3.368340660276711862E+00
        pair_coeff 33     59  4.798523843539687084E-01 3.455069189633579008E+00
        pair_coeff 34   59  2.832176819438365079E-01 3.431537559306359508E+00
        pair_coeff 35   59  2.082537742436552652E-01 3.223053226084240830E+00
        pair_coeff 36    59  4.100541392375962879E-02 3.194635237397348781E+00
        pair_coeff 37    59  2.312928247109353463E-01 3.659546234266159548E+00
        pair_coeff 38   59  1.832119947291552531E-01 3.334308524577047184E+00
        pair_coeff 39  59  3.143485531522378085E-01 3.353839251584496139E+00
        pair_coeff 40   59  8.072054746493292909E-02 2.683428505195357694E+00
        pair_coeff 41  59  3.198247837881820765E-01 3.411811460518701100E+00
        pair_coeff 42  59  2.614906885166861650E-01 3.500724051252714020E+00
        pair_coeff 43  59  3.677527078379324021E-01 2.932539165606559806E+00
        pair_coeff 44   59  1.339797523846405214E-01 3.512838938705180603E+00
        pair_coeff 45  59  2.987821701324951396E-01 3.357527805870319515E+00
        pair_coeff 46   59  1.653764218541119713E-01 3.172037148255793415E+00
        pair_coeff 47   59  1.788964013789737795E-01 3.315151346404604737E+00
        pair_coeff 48  59  1.964825460064327234E-01 3.580150878787119240E+00
        pair_coeff 49   59  2.588321155025055109E-01 3.108350117033022997E+00
        pair_coeff 50  59  1.861466306346315491E-01 3.501654855827156965E+00
        pair_coeff 51  59  2.632257047206049139E-01 3.111050730444828272E+00
        pair_coeff 52  59  2.368019762580622356E-01 3.259929367013902457E+00
        pair_coeff 53   59  2.614906885166861650E-01 3.500724051252714020E+00
        pair_coeff 54      59  5.254452897086219210E-01 3.547897350510067938E+00
        pair_coeff 55  59  3.299208273968177729E-01 3.269833376988799500E+00
        pair_coeff 56      59  1.478995001499436579E-01 3.421967204782814687E+00
        pair_coeff 57     59  3.876639902911756530E-01 3.288709231343011297E+00
        pair_coeff 58   59  0.000000000000000000E+00 0.000000000000000000E+00
        pair_coeff 59  59  3.299208273968177729E-01 3.269833376988799500E+00
        pair_coeff 1      60  4.213927930353735807E-01 3.280869740545562685E+00
        pair_coeff 2     60  4.893656869531686771E-01 3.200107637098358104E+00
        pair_coeff 3     60  3.830843573048849926E-01 3.333402593012885884E+00
        pair_coeff 4     60  3.830843573048849926E-01 3.333402593012885884E+00
        pair_coeff 5     60  3.004318441315838584E-01 3.513667214970925379E+00
        pair_coeff 6      60  2.980257643827635139E-01 3.497438510452560934E+00
        pair_coeff 7     60  2.980257643827635139E-01 3.497438510452560934E+00
        pair_coeff 8     60  2.980257643827635139E-01 3.497438510452560934E+00
        pair_coeff 9     60  2.980257643827635139E-01 3.497438510452560934E+00
        pair_coeff 10     60  2.980257643827635139E-01 3.497438510452560934E+00
        pair_coeff 11     60  2.980257643827635139E-01 3.497438510452560934E+00
        pair_coeff 12      60  1.962416041396830291E-01 3.737165469999586431E+00
        pair_coeff 13    60  3.116305597093314839E-02 5.088581787981105720E+00
        pair_coeff 14    60  1.147736244965881502E-01 4.424312125013074137E+00
        pair_coeff 15    60  2.387329654277859925E-01 3.984252396783054539E+00
        pair_coeff 16    60  3.469609574750426306E-01 3.823176629528523662E+00
        pair_coeff 17    60  4.188334641408217873E-01 3.803761543847788751E+00
        pair_coeff 18   60  2.579447874860245626E-01 3.927246681838655107E+00
        pair_coeff 19    60  2.641618342654674101E-01 3.819744041394028677E+00
        pair_coeff 20     60  1.281958466924380258E-01 3.042394376963291069E+00
        pair_coeff 21      60  0.000000000000000000E+00 0.000000000000000000E+00
        pair_coeff 22    60  0.000000000000000000E+00 0.000000000000000000E+00
        pair_coeff 23      60  5.143749860195843127E-01 3.591633070903154312E+00
        pair_coeff 24   60  1.088272547975307258E+00 2.433450243663300760E+00
        pair_coeff 25   60  1.088272547975307258E+00 2.433450243663300760E+00
        pair_coeff 26     60  0.000000000000000000E+00 0.000000000000000000E+00
        pair_coeff 27   60  8.018673498307147263E-01 2.560520917340021185E+00
        pair_coeff 28   60  2.083349068186673148E-01 2.745815911556464428E+00
        pair_coeff 29   60  2.652783568454061824E-01 3.312247428395911797E+00
        pair_coeff 30     60  3.719223788481205717E-01 3.646668612851485136E+00
        pair_coeff 31      60  2.515833454197372587E-01 3.386159644432585214E+00
        pair_coeff 32     60  4.174965292645979598E-01 3.678599370907961408E+00
        pair_coeff 33     60  6.366958749718966137E-01 3.773316487051947554E+00
        pair_coeff 34   60  3.757895879907217074E-01 3.747617352300228966E+00
        pair_coeff 35   60  2.763231429740154454E-01 3.519929474384682955E+00
        pair_coeff 36    60  5.440835296030136631E-02 3.488893897568208224E+00
        pair_coeff 37    60  3.068926865963431116E-01 3.996627964011863376E+00
        pair_coeff 38   60  2.430962627110289931E-01 3.641432526576616979E+00
        pair_coeff 39  60  4.170958270111979060E-01 3.662762233791288402E+00
        pair_coeff 40   60  1.071046873416893891E-01 2.930599783893948374E+00
        pair_coeff 41  60  4.243620062988024966E-01 3.726074277561229664E+00
        pair_coeff 42  60  3.469609574750426306E-01 3.823176629528523662E+00
        pair_coeff 43  60  4.879555457568295340E-01 3.202656090277113510E+00
        pair_coeff 44   60  1.777720783609382238E-01 3.836407422330105899E+00
        pair_coeff 45  60  3.964414504152660723E-01 3.666790541745827525E+00
        pair_coeff 46   60  2.194309938750947930E-01 3.464214292717012533E+00
        pair_coeff 47   60  2.373700840491974606E-01 3.620510775874676401E+00
        pair_coeff 48  60  2.607043970713927572E-01 3.909919482247368627E+00
        pair_coeff 49   60  3.434334091567836644E-01 3.394661032931277411E+00
        pair_coeff 50  60  2.469901072275602905E-01 3.824193170747873793E+00
        pair_coeff 51  60  3.492630772436706166E-01 3.397610400527878660E+00
        pair_coeff 52  60  3.142025472514550222E-01 3.560202285987479787E+00
        pair_coeff 53   60  3.469609574750426306E-01 3.823176629528523662E+00
        pair_coeff 54      60  6.971911766809288924E-01 3.874695073318440208E+00
        pair_coeff 55  60  4.377580204247071283E-01 3.571018556827535662E+00
        pair_coeff 56      60  1.962416041396830291E-01 3.737165469999586431E+00
        pair_coeff 57     60  5.143749860195843127E-01 3.591633070903154312E+00
        pair_coeff 58   60  0.000000000000000000E+00 0.000000000000000000E+00
        pair_coeff 59  60  4.377580204247071283E-01 3.571018556827535662E+00
        pair_coeff 60  60  5.808426402121911192E-01 3.899945979801004992E+00
        pair_coeff 1      61  1.910810716445957014E-01 3.063480889575645350E+00
        pair_coeff 2     61  2.219034625996930687E-01 2.988070044257751245E+00
        pair_coeff 3     61  1.557302947388717884E-01 3.169732425659423480E+00
        pair_coeff 4     61  1.737100651314506250E-01 3.112532940505829959E+00
        pair_coeff 5     61  1.362311830710550009E-01 3.280853315316931695E+00
        pair_coeff 6      61  1.351401432989809970E-01 3.265699916954241999E+00
        pair_coeff 7     61  9.147486144193246738E-02 3.485165270484214428E+00
        pair_coeff 8     61  6.708554049685398757E-02 3.670023545392655517E+00
        pair_coeff 9     61  1.117970875851971996E-01 3.370558915160181357E+00
        pair_coeff 10     61  9.581863977856053260E-02 3.458321283688134518E+00
        pair_coeff 11     61  1.037391321796109073E-01 3.412845037342698173E+00
        pair_coeff 12      61  8.898599273651414121E-02 3.489542683465986617E+00
        pair_coeff 13    61  1.413092541937840431E-02 4.751414806224702581E+00
        pair_coeff 14    61  5.204423883799429856E-02 4.131159331623315722E+00
        pair_coeff 15    61  1.082537519026915002E-01 3.720257749325097230E+00
        pair_coeff 16    61  1.573298657900891462E-01 3.569854784934338721E+00
        pair_coeff 17    61  1.899205408620464608E-01 3.551726133492507209E+00
        pair_coeff 18   61  1.169653758502452456E-01 3.667029205634201983E+00
        pair_coeff 19    61  1.197845032314313607E-01 3.566649638438623260E+00
        pair_coeff 20     61  5.813056172586479609E-02 2.840806788882025202E+00
        pair_coeff 21      61  0.000000000000000000E+00 0.000000000000000000E+00
        pair_coeff 22    61  0.000000000000000000E+00 0.000000000000000000E+00
        pair_coeff 23      61  2.332439595082145267E-01 3.353653191135248957E+00
        pair_coeff 24   61  1.570138934856017687E-01 2.750027377697141340E+00
        pair_coeff 25   61  8.635572240102759589E-02 3.038166082187003791E+00
        pair_coeff 26     61  0.000000000000000000E+00 0.000000000000000000E+00
        pair_coeff 27   61  3.636077195786372451E-01 2.390862032921029723E+00
        pair_coeff 28   61  9.446971546223430216E-02 2.563879469944211564E+00
        pair_coeff 29   61  1.202907917456541853E-01 3.092779506921127464E+00
        pair_coeff 30     61  1.686486525006622439E-01 3.405042104545177306E+00
        pair_coeff 31      61  1.140807722516042760E-01 3.161794335073641271E+00
        pair_coeff 32     61  1.893143061255012083E-01 3.434857145930944711E+00
        pair_coeff 33     61  2.887105145415023166E-01 3.523298351516439553E+00
        pair_coeff 34   61  1.704022431634715784E-01 3.499302029072553388E+00
        pair_coeff 35   61  1.252990633735053816E-01 3.286700640433966480E+00
        pair_coeff 36    61  2.467153345263567096E-02 3.257721466009803724E+00
        pair_coeff 37    61  1.391608599006002867E-01 3.731813317421747822E+00
        pair_coeff 38   61  1.102322943328560290E-01 3.400152958828419614E+00
        pair_coeff 39  61  1.891326072040779016E-01 3.420069369902248191E+00
        pair_coeff 40   61  4.856675001010610920E-02 2.736419651778293272E+00
        pair_coeff 41  61  1.924274649899363476E-01 3.479186388103933769E+00
        pair_coeff 42  61  1.573298657900891462E-01 3.569854784934338721E+00
        pair_coeff 43  61  2.212640323687539434E-01 2.990449638154641487E+00
        pair_coeff 44   61  8.061096393464804721E-02 3.582208911768658854E+00
        pair_coeff 45  61  1.797668551567465633E-01 3.423830764109261793E+00
        pair_coeff 46   61  9.950124955784923897E-02 3.234677119905607690E+00
        pair_coeff 47   61  1.076357516932685832E-01 3.380617473265008499E+00
        pair_coeff 48  61  1.182167241542694813E-01 3.650850097953766138E+00
        pair_coeff 49   61  1.557302947388717884E-01 3.169732425659423480E+00
        pair_coeff 50  61  1.119979628381875536E-01 3.570803970621432288E+00
        pair_coeff 51  61  1.583737647834132234E-01 3.172486369577665499E+00
        pair_coeff 52  61  1.424755250553842723E-01 3.324304994910451949E+00
        pair_coeff 53   61  1.573298657900891462E-01 3.569854784934338721E+00
        pair_coeff 54      61  3.161421822659541414E-01 3.617959641418169170E+00
        pair_coeff 55  61  1.985019037967935274E-01 3.334404584847074471E+00
        pair_coeff 56      61  8.898599273651414121E-02 3.489542683465986617E+00
        pair_coeff 57     61  2.332439595082145267E-01 3.353653191135248957E+00
        pair_coeff 58   61  0.000000000000000000E+00 0.000000000000000000E+00
        pair_coeff 59  61  1.985019037967935274E-01 3.334404584847074471E+00
        pair_coeff 60  61  2.633837976894515820E-01 3.641537434982425658E+00
        pair_coeff 61  61  1.194317016050606556E-01 3.400250916053718875E+00
        pair_coeff 1      62   3.022272329752703768E-01 3.080610167712853453E+00
        pair_coeff 2     62   1.855061234448970586E-01 3.341688535145806327E+00
        pair_coeff 3     62   2.783347785346825254E-01 3.123185389796383937E+00
        pair_coeff 4     62   2.783347785346825254E-01 3.123185389796383937E+00
        pair_coeff 5     62   2.434842638240715673E-01 3.232674486185113771E+00
        pair_coeff 6      62   1.146462465840507594E-01 3.643241170326683598E+00
        pair_coeff 7     62   9.900340316124917051E-02 3.733414477700354173E+00
        pair_coeff 8     62   7.260679827666578767E-02 3.931440254472196472E+00
        pair_coeff 9     62   1.209981842003316904E-01 3.610644682584218224E+00
        pair_coeff 10     62   1.037046820823140647E-01 3.704658386908206591E+00
        pair_coeff 11     62   1.122770449157311640E-01 3.655942855987651008E+00
        pair_coeff 12      62   9.630969619111764968E-02 3.738103694920388520E+00
        pair_coeff 13    62   1.529392539418433263E-02 5.089859289414571109E+00
        pair_coeff 14    62   5.632757107994194185E-02 4.425422859853802571E+00
        pair_coeff 15    62   1.171632257693376034E-01 3.985252653506883291E+00
        pair_coeff 16    62   1.702783900034554321E-01 3.824136447770248637E+00
        pair_coeff 17    62   2.055513348604910695E-01 3.804716487882746634E+00
        pair_coeff 18   62   1.265918316646999775E-01 3.928232627132385968E+00
        pair_coeff 19    62   1.296429781795231384E-01 3.820702997875749851E+00
        pair_coeff 20     62   6.291480902858739843E-02 3.043158177829559552E+00
        pair_coeff 21      62   0.000000000000000000E+00 0.000000000000000000E+00
        pair_coeff 22    62   0.000000000000000000E+00 0.000000000000000000E+00
        pair_coeff 23      62   2.524403469337466177E-01 3.592534759544063760E+00
        pair_coeff 24   62   5.340926503741362241E-01 2.434061167552131533E+00
        pair_coeff 25   62   5.340926503741362241E-01 2.434061167552131533E+00
        pair_coeff 26     62   0.000000000000000000E+00 0.000000000000000000E+00
        pair_coeff 27   62   3.935332733664513305E-01 2.561163742645501173E+00
        pair_coeff 28   62   1.022447389261494227E-01 2.746505255642734511E+00
        pair_coeff 29   62   1.301909351274692650E-01 3.313078976558852418E+00
        pair_coeff 30     62   1.825287327352057842E-01 3.647584118305537970E+00
        pair_coeff 31      62   8.776721851084816339E-02 3.585264437649749780E+00
        pair_coeff 32     62   2.048952059406277393E-01 3.679522892660245681E+00
        pair_coeff 33     62   3.124718968411722697E-01 3.774263787777763390E+00
        pair_coeff 34   62   1.844266469887313464E-01 3.748558201192733641E+00
        pair_coeff 35   62   1.356113963044227322E-01 3.520813161654846368E+00
        pair_coeff 36    62   2.670204397705544519E-02 3.489769793277673227E+00
        pair_coeff 37    62   1.506140430259195195E-01 3.997631327653401900E+00
        pair_coeff 38   62   1.193046057156692125E-01 3.642346717497859210E+00
        pair_coeff 39  62   2.046985528789223296E-01 3.663681779589916143E+00
        pair_coeff 40   62   5.256387881532230411E-02 2.931335518442557131E+00
        pair_coeff 41  62   2.082645832460674196E-01 3.727009718009888228E+00
        pair_coeff 42  62   1.702783900034554321E-01 3.824136447770248637E+00
        pair_coeff 43  62   1.845251754501273656E-01 3.345696810660210740E+00
        pair_coeff 44   62   8.724538781296764522E-02 3.837370562196102064E+00
        pair_coeff 45  62   1.945619829925733513E-01 3.667711098861439201E+00
        pair_coeff 46   62   1.076903771128106951E-01 3.465083992548747993E+00
        pair_coeff 47   62   1.164943630575195482E-01 3.621419714337055673E+00
        pair_coeff 48  62   1.279461681314143506E-01 3.910901077503457834E+00
        pair_coeff 49   62   1.685471714460022030E-01 3.395513271239786857E+00
        pair_coeff 50  62   1.212155918393642284E-01 3.825153244194864577E+00
        pair_coeff 51  62   1.714082037169344097E-01 3.398463379282643082E+00
        pair_coeff 52  62   1.542015109432330056E-01 3.561096083849689897E+00
        pair_coeff 53   62   1.702783900034554321E-01 3.824136447770248637E+00
        pair_coeff 54      62   3.421612389871924731E-01 3.875667825396847732E+00
        pair_coeff 55  62   2.148389590329646270E-01 3.571915070142120285E+00
        pair_coeff 56      62   9.630969619111764968E-02 3.738103694920388520E+00
        pair_coeff 57     62   2.524403469337466177E-01 3.592534759544063760E+00
        pair_coeff 58   62   0.000000000000000000E+00 0.000000000000000000E+00
        pair_coeff 59  62   2.148389590329646270E-01 3.571915070142120285E+00
        pair_coeff 60  62   2.850607467204795409E-01 3.900925071183873882E+00
        pair_coeff 61  62   2.134587638969343837E-01 3.350318751416838214E+00
        pair_coeff 62   62   1.398995591837953467E-01 3.901904408370130639E+00
        pair_coeff 1      63   1.498564773336243661E-01 3.117191049441867978E+00
        pair_coeff 2     63   1.740291224406275705E-01 3.040458071326784140E+00
        pair_coeff 3     63   1.362331612123857949E-01 3.167103100349917710E+00
        pair_coeff 4     63   1.362331612123857949E-01 3.167103100349917710E+00
        pair_coeff 5     63   1.068401230028258736E-01 3.338374534614535705E+00
        pair_coeff 6      63   1.059844685129975872E-01 3.322955460872134559E+00
        pair_coeff 7     63   1.059844685129975872E-01 3.322955460872134559E+00
        pair_coeff 8     63   1.059844685129975872E-01 3.322955460872134559E+00
        pair_coeff 9     63   1.059844685129975872E-01 3.322955460872134559E+00
        pair_coeff 10     63   1.059844685129975872E-01 3.322955460872134559E+00
        pair_coeff 11     63   1.059844685129975872E-01 3.322955460872134559E+00
        pair_coeff 12      63   6.978779891046651973E-02 3.550722727391420364E+00
        pair_coeff 13    63   1.108226307601466523E-02 4.834718491813685404E+00
        pair_coeff 14    63   4.081600668577894941E-02 4.203588452656632057E+00
        pair_coeff 15    63   8.489865468443062724E-02 3.785482781131149110E+00
        pair_coeff 16    63   1.233868915625870588E-01 3.632442892420324476E+00
        pair_coeff 17    63   1.489463241017357775E-01 3.613996402283818909E+00
        pair_coeff 18   63   9.173079805373214601E-02 3.731321013537728604E+00
        pair_coeff 19    63   9.394171562323941349E-02 3.629181552027246127E+00
        pair_coeff 20     63   4.558924194158552046E-02 2.890612938252534736E+00
        pair_coeff 21      63   0.000000000000000000E+00 0.000000000000000000E+00
        pair_coeff 22    63   0.000000000000000000E+00 0.000000000000000000E+00
        pair_coeff 23      63   1.829229752084453597E-01 3.412450766679025804E+00
        pair_coeff 24   63   3.870134779566036798E-01 2.312048303858599940E+00
        pair_coeff 25   63   3.870134779566036798E-01 2.312048303858599940E+00
        pair_coeff 26     63   0.000000000000000000E+00 0.000000000000000000E+00
        pair_coeff 27   63   2.851615365059002039E-01 2.432779572685431102E+00
        pair_coeff 28   63   7.408844137221298753E-02 2.608830419916517318E+00
        pair_coeff 29   63   9.433877542933588600E-02 3.147003341746720917E+00
        pair_coeff 30     63   1.322637179773560601E-01 3.464740650865038685E+00
        pair_coeff 31      63   8.946853036768810663E-02 3.217228165191134082E+00
        pair_coeff 32     63   1.484708808708911920E-01 3.495078421360915844E+00
        pair_coeff 33     63   2.264229539116222045E-01 3.585070213178863874E+00
        pair_coeff 34   63   1.336389819799702339E-01 3.560653177709135697E+00
        pair_coeff 35   63   9.826654251385204264E-02 3.344324377350627486E+00
        pair_coeff 36    63   1.934879819235730755E-02 3.314837128566866298E+00
        pair_coeff 37    63   1.091377396407426786E-01 3.797240946022814256E+00
        pair_coeff 38   63   8.645033846078624407E-02 3.459765786709836810E+00
        pair_coeff 39  63   1.483283824011816243E-01 3.480031380188026713E+00
        pair_coeff 40   63   3.808876520011451883E-02 2.784395644531571179E+00
        pair_coeff 41  63   1.509123943959561898E-01 3.540184861358758983E+00
        pair_coeff 42  63   1.233868915625870588E-01 3.632442892420324476E+00
        pair_coeff 43  63   1.735276454440603799E-01 3.042879385206016973E+00
        pair_coeff 44   63   6.321963230446354942E-02 3.645013616697617920E+00
        pair_coeff 45  63   1.409832351434577025E-01 3.483858720647509788E+00
        pair_coeff 46   63   7.803445218669756434E-02 3.291388759862927227E+00
        pair_coeff 47   63   8.441398431086369336E-02 3.439887797278931458E+00
        pair_coeff 48  63   9.271217547193744135E-02 3.714858247335717678E+00
        pair_coeff 49   63   1.221324183648120482E-01 3.225305429523958711E+00
        pair_coeff 50  63   8.783507458389137879E-02 3.633408719606690873E+00
        pair_coeff 51  63   1.242055756137348393E-01 3.228107656677332127E+00
        pair_coeff 52  63   1.117372856834838307E-01 3.382588026258317004E+00
        pair_coeff 53   63   1.233868915625870588E-01 3.632442892420324476E+00
        pair_coeff 54      63   2.479364039733781833E-01 3.681391142293968244E+00
        pair_coeff 55  63   1.556763094898980793E-01 3.392864686204393188E+00
        pair_coeff 56      63   6.978779891046651973E-02 3.550722727391420364E+00
        pair_coeff 57     63   1.829229752084453597E-01 3.412450766679025804E+00
        pair_coeff 58   63   0.000000000000000000E+00 0.000000000000000000E+00
        pair_coeff 59  63   1.556763094898980793E-01 3.392864686204393188E+00
        pair_coeff 60  63   2.065603242057677535E-01 3.705382311070042789E+00
        pair_coeff 61  63   9.366502883019156567E-02 3.459865461359993954E+00
        pair_coeff 62   63   1.013738251713232619E-01 3.706312556747750619E+00
        pair_coeff 63   63   7.345736105118740034E-02 3.520525192477496734E+00
        pair_coeff 1      64   2.736888169216060152E-01 2.785635403427779710E+00
        pair_coeff 2     64   3.178362756028405567E-01 2.717064020712530947E+00
        pair_coeff 3     64   2.488080153832781527E-01 2.830238629172332043E+00
        pair_coeff 4     64   2.488080153832781527E-01 2.830238629172332043E+00
        pair_coeff 5     64   1.951263461191829751E-01 2.983293017984591344E+00
        pair_coeff 6      64   1.935636304516219763E-01 2.969513972355486864E+00
        pair_coeff 7     64   1.935636304516219763E-01 2.969513972355486864E+00
        pair_coeff 8     64   1.935636304516219763E-01 2.969513972355486864E+00
        pair_coeff 9     64   1.935636304516219763E-01 2.969513972355486864E+00
        pair_coeff 10     64   1.935636304516219763E-01 2.969513972355486864E+00
        pair_coeff 11     64   1.935636304516219763E-01 2.969513972355486864E+00
        pair_coeff 12      64   1.274562198392401313E-01 3.173055093606844679E+00
        pair_coeff 13    64   2.023997576918816488E-02 4.320480452686580541E+00
        pair_coeff 14    64   7.454388879317874750E-02 3.756479673344732539E+00
        pair_coeff 15    64   1.550537739325613118E-01 3.382845224091495684E+00
        pair_coeff 16    64   2.253463645766736745E-01 3.246083208107312768E+00
        pair_coeff 17    64   2.720265680439789557E-01 3.229598752975045173E+00
        pair_coeff 18   64   1.675315878319233176E-01 3.334444296805542329E+00
        pair_coeff 19    64   1.715694741126911615E-01 3.243168755602641173E+00
        pair_coeff 20     64   8.326143729888541012E-02 2.583156954670584149E+00
        pair_coeff 21      64   0.000000000000000000E+00 0.000000000000000000E+00
        pair_coeff 22    64   0.000000000000000000E+00 0.000000000000000000E+00
        pair_coeff 23      64   3.340794709935869244E-01 3.049490235709929387E+00
        pair_coeff 24   64   7.068180354917007469E-01 2.066130534673785490E+00
        pair_coeff 25   64   7.068180354917007469E-01 2.066130534673785490E+00
        pair_coeff 26     64   0.000000000000000000E+00 0.000000000000000000E+00
        pair_coeff 27   64   5.208018028082631590E-01 2.174020391731148916E+00
        pair_coeff 28   64   1.353106534166275132E-01 2.331345837965244083E+00
        pair_coeff 29   64   1.722946401549686202E-01 2.812276753150826814E+00
        pair_coeff 30     64   2.415584640648248682E-01 3.096218379836923162E+00
        pair_coeff 31      64   1.633999188005277048E-01 2.875032211922354808E+00
        pair_coeff 32     64   2.711582472501199992E-01 3.123329316001555611E+00
        pair_coeff 33     64   4.135252041325190309E-01 3.203749257330099631E+00
        pair_coeff 34   64   2.440701631553644779E-01 3.181929305529774155E+00
        pair_coeff 35   64   1.794680766699055796E-01 2.988610014058173281E+00
        pair_coeff 36    64   3.533747609942639034E-02 2.962259135058813886E+00
        pair_coeff 37    64   1.993225743407424921E-01 3.393352748295836552E+00
        pair_coeff 38   64   1.578876754398131910E-01 3.091772660117416471E+00
        pair_coeff 39  64   2.708979966538037076E-01 3.109882732220449419E+00
        pair_coeff 40   64   6.956301970462222539E-02 2.488237314150513413E+00
        pair_coeff 41  64   2.756172800531233036E-01 3.163638072888010022E+00
        pair_coeff 42  64   2.253463645766736745E-01 3.246083208107312768E+00
        pair_coeff 43  64   3.169204083120440441E-01 2.719227794943182452E+00
        pair_coeff 44   64   1.154605171527362945E-01 3.257316864959954650E+00
        pair_coeff 45  64   2.574832634447348223E-01 3.113302982989749168E+00
        pair_coeff 46   64   1.425174091778202701E-01 2.941304819144806793E+00
        pair_coeff 47   64   1.541686012426736752E-01 3.074008965101800328E+00
        pair_coeff 48  64   1.693239162605719161E-01 3.319732569598804695E+00
        pair_coeff 49   64   2.230552705147563208E-01 2.882250349383768562E+00
        pair_coeff 50  64   1.604166738389782576E-01 3.246946306442084040E+00
        pair_coeff 51  64   2.268415596685240676E-01 2.884754521583377418E+00
        pair_coeff 52  64   2.040702281868096157E-01 3.022803803713983939E+00
        pair_coeff 53   64   2.253463645766736745E-01 3.246083208107312768E+00
        pair_coeff 54      64   4.528160696330849611E-01 3.289825146160248348E+00
        pair_coeff 55  64   2.843178067782592411E-01 3.031987401164613072E+00
        pair_coeff 56      64   1.274562198392401313E-01 3.173055093606844679E+00
        pair_coeff 57     64   3.340794709935869244E-01 3.049490235709929387E+00
        pair_coeff 58   64   0.000000000000000000E+00 0.000000000000000000E+00
        pair_coeff 59  64   2.843178067782592411E-01 3.031987401164613072E+00
        pair_coeff 60  64   3.772492971989485633E-01 3.311264527979406402E+00
        pair_coeff 61  64   1.710641500693499129E-01 3.091861733013461677E+00
        pair_coeff 62   64   1.851430299952198100E-01 3.312095829382690759E+00
        pair_coeff 63   64   1.341580864437666998E-01 3.146069477063536013E+00
        pair_coeff 64   64   2.450182241873804789E-01 2.811442217672497801E+00
        pair_coeff 1      65   3.029649478331380430E-01 3.149235865916097055E+00
        pair_coeff 2     65   1.859589305005138193E-01 3.416130186772377453E+00
        pair_coeff 3     65   2.790141736360602920E-01 3.192759521648344645E+00
        pair_coeff 4     65   2.790141736360602920E-01 3.192759521648344645E+00
        pair_coeff 5     65   2.440785913349041991E-01 3.304687669158851371E+00
        pair_coeff 6      65   1.476955362938090210E-01 3.571891367671221396E+00
        pair_coeff 7     65   1.476955362938090210E-01 3.571891367671221396E+00
        pair_coeff 8     65   1.476955362938090210E-01 3.571891367671221396E+00
        pair_coeff 9     65   1.476955362938090210E-01 3.571891367671221396E+00
        pair_coeff 10     65   1.476955362938090210E-01 3.571891367671221396E+00
        pair_coeff 11     65   1.476955362938090210E-01 3.571891367671221396E+00
        pair_coeff 12      65   9.725336675705262279E-02 3.816721592661593387E+00
        pair_coeff 13    65   1.544377974741017144E-02 5.196906624050063428E+00
        pair_coeff 14    65   5.687948509255881524E-02 4.518496105074461866E+00
        pair_coeff 15    65   1.183112253160199800E-01 4.069068462579280343E+00
        pair_coeff 16    65   1.719468274611148095E-01 3.904563742659835412E+00
        pair_coeff 17    65   2.075653869462910639E-01 3.884735352042429479E+00
        pair_coeff 18   65   1.278322154490358076E-01 4.010849219979507829E+00
        pair_coeff 19    65   1.309132579896203075E-01 3.901058082191544596E+00
        pair_coeff 20     65   6.353126672484969706E-02 3.107160334527358625E+00
        pair_coeff 21      65   0.000000000000000000E+00 0.000000000000000000E+00
        pair_coeff 22    65   0.000000000000000000E+00 0.000000000000000000E+00
        pair_coeff 23      65   2.549138312710149123E-01 3.668091125393774021E+00
        pair_coeff 24   65   5.393258463406160885E-01 2.485253105385875294E+00
        pair_coeff 25   65   5.393258463406160885E-01 2.485253105385875294E+00
        pair_coeff 26     65   0.000000000000000000E+00 0.000000000000000000E+00
        pair_coeff 27   65   3.973892274549682413E-01 2.615028837263234429E+00
        pair_coeff 28   65   1.032465627763134441E-01 2.804268358797742167E+00
        pair_coeff 29   65   1.314665839799746549E-01 3.382757970360330546E+00
        pair_coeff 30     65   1.843172026331671987E-01 3.724298254300499433E+00
        pair_coeff 31      65   1.246796135270904909E-01 3.458243616680580335E+00
        pair_coeff 32     65   2.069028290834072914E-01 3.756908748730711789E+00
        pair_coeff 33     65   3.155335878587179343E-01 3.853642186220550769E+00
        pair_coeff 34   65   1.862337132055325029E-01 3.827395972798371737E+00
        pair_coeff 35   65   1.369401564205784128E-01 3.594861115296422938E+00
        pair_coeff 36    65   2.696367841209141095E-02 3.563164858567346549E+00
        pair_coeff 37    65   1.520898034616910699E-01 4.081707478711374293E+00
        pair_coeff 38   65   1.204735871292430399E-01 3.718950703139931591E+00
        pair_coeff 39  65   2.067042491574984375E-01 3.740734473418478423E+00
        pair_coeff 40   65   5.307891507056041597E-02 2.992985877780431903E+00
        pair_coeff 41  65   2.103052205329510593E-01 3.805394292865085681E+00
        pair_coeff 42  65   1.719468274611148095E-01 3.904563742659835412E+00
        pair_coeff 43  65   2.418208914499519191E-01 3.270833671068669624E+00
        pair_coeff 44   65   8.810024363484980636E-02 3.918076190256606139E+00
        pair_coeff 45  65   1.964683581952911540E-01 3.744848535285795421E+00
        pair_coeff 46   65   1.087455589183283500E-01 3.537959878619287846E+00
        pair_coeff 47   65   1.176358088917642403E-01 3.697583573880764529E+00
        pair_coeff 48  65   1.291998221004829195E-01 3.993153162004202006E+00
        pair_coeff 49   65   1.701986459179967992E-01 3.466925981245660537E+00
        pair_coeff 50  65   1.224032976537840489E-01 3.905601923830262834E+00
        pair_coeff 51  65   1.730877114197359179E-01 3.469938134462050350E+00
        pair_coeff 52  65   1.557124224386972067E-01 3.635991247444840813E+00
        pair_coeff 53   65   1.719468274611148095E-01 3.904563742659835412E+00
        pair_coeff 54      65   3.455138348607721954E-01 3.957178902039792057E+00
        pair_coeff 55  65   2.169440139762717490E-01 3.647037773160310081E+00
        pair_coeff 56      65   9.725336675705262279E-02 3.816721592661593387E+00
        pair_coeff 57     65   2.549138312710149123E-01 3.668091125393774021E+00
        pair_coeff 58   65   0.000000000000000000E+00 0.000000000000000000E+00
        pair_coeff 59  65   2.169440139762717490E-01 3.647037773160310081E+00
        pair_coeff 60  65   2.878538552736386591E-01 3.982967345388086056E+00
        pair_coeff 61  65   2.139798013299897272E-01 3.424952655417128344E+00
        pair_coeff 62   65   1.412703359737776110E-01 3.983967279496484881E+00
        pair_coeff 63   65   1.023671155538469490E-01 3.784261839422624174E+00
        pair_coeff 64   65   1.869571155422015130E-01 3.381754146132254668E+00
        pair_coeff 65   65   1.426545440355874161E-01 4.067756055235738799E+00
        pair_coeff 1      66   4.547358060207790653E-01 2.888292173693689513E+00
        pair_coeff 2     66   2.791154051078111320E-01 3.133071799912078959E+00
        pair_coeff 3     66   4.187868466206033369E-01 2.928209486837023423E+00
        pair_coeff 4     66   4.187868466206033369E-01 2.928209486837023423E+00
        pair_coeff 5     66   3.663502189178132196E-01 3.030863338829969500E+00
        pair_coeff 6      66   1.833232912906428147E-01 3.381325076733848078E+00
        pair_coeff 7     66   1.833232912906428147E-01 3.381325076733848078E+00
        pair_coeff 8     66   1.833232912906428147E-01 3.381325076733848078E+00
        pair_coeff 9     66   1.833232912906428147E-01 3.381325076733848078E+00
        pair_coeff 10     66   1.833232912906428147E-01 3.381325076733848078E+00
        pair_coeff 11     66   1.833232912906428147E-01 3.381325076733848078E+00
        pair_coeff 12      66   1.207132438148451475E-01 3.613093205741105152E+00
        pair_coeff 13    66   1.916919498251404980E-02 4.919643091161947979E+00
        pair_coeff 14    66   7.060020008554598880E-02 4.277426891393306008E+00
        pair_coeff 15    66   1.468507699407754774E-01 3.851976954281385979E+00
        pair_coeff 16    66   2.134245836275632802E-01 3.696248832273197671E+00
        pair_coeff 17    66   2.576352058285252822E-01 3.677478318972391413E+00
        pair_coeff 18   66   1.586684544241984962E-01 3.796863804219543059E+00
        pair_coeff 19    66   1.624927193500039502E-01 3.692930204568213970E+00
        pair_coeff 20     66   7.885655320479272035E-02 2.941388210084320498E+00
        pair_coeff 21      66   0.000000000000000000E+00 0.000000000000000000E+00
        pair_coeff 22    66   0.000000000000000000E+00 0.000000000000000000E+00
        pair_coeff 23      66   3.164052463383004721E-01 3.472392418844832296E+00
        pair_coeff 24   66   6.694243557407878464E-01 2.352660756519802554E+00
        pair_coeff 25   66   6.694243557407878464E-01 2.352660756519802554E+00
        pair_coeff 26     66   0.000000000000000000E+00 0.000000000000000000E+00
        pair_coeff 27   66   4.932491727818341110E-01 2.475512739231275461E+00
        pair_coeff 28   66   1.281521444557910949E-01 2.654656020425442797E+00
        pair_coeff 29   66   1.631795210249484540E-01 3.202282257861074122E+00
        pair_coeff 30     66   2.287789941124505622E-01 3.525600804795111287E+00
        pair_coeff 31      66   1.547553682540754594E-01 3.273740620549896452E+00
        pair_coeff 32     66   2.568128228971093829E-01 3.556471475605421873E+00
        pair_coeff 33     66   3.916479623591037629E-01 3.648044024788604123E+00
        pair_coeff 34   66   2.311578136403500405E-01 3.623198090106222846E+00
        pair_coeff 35   66   1.699734522439199091E-01 3.403069350469131837E+00
        pair_coeff 36    66   3.346797334466397600E-02 3.373064141271939320E+00
        pair_coeff 37    66   1.887775625586927686E-01 3.863941658073751118E+00
        pair_coeff 38   66   1.495347460074094303E-01 3.520538554301717582E+00
        pair_coeff 39  66   2.565663406640278366E-01 3.541160124536279596E+00
        pair_coeff 40   66   6.588284015242455716E-02 2.833305148764191372E+00
        pair_coeff 41  66   2.610359539032401366E-01 3.602370236056116504E+00
        pair_coeff 42  66   2.134245836275632802E-01 3.696248832273197671E+00
        pair_coeff 43  66   3.001539710398187233E-01 3.096329304387715808E+00
        pair_coeff 44   66   1.093521648109900685E-01 3.709040368522185549E+00
        pair_coeff 45  66   2.438613038865376503E-01 3.545054694423006580E+00
        pair_coeff 46   66   1.349776321912045940E-01 3.349203888541882890E+00
        pair_coeff 47   66   1.460124266502917378E-01 3.500311396601526681E+00
        pair_coeff 48  66   1.603659610572732153E-01 3.780111860100299648E+00
        pair_coeff 49   66   2.112546981841710303E-01 3.281959766656903810E+00
        pair_coeff 50  66   1.519299496369445057E-01 3.697231624767261415E+00
        pair_coeff 51  66   2.148406765408863717E-01 3.284811216535175493E+00
        pair_coeff 52  66   1.932740453273771308E-01 3.442005122285029639E+00
        pair_coeff 53   66   2.134245836275632802E-01 3.696248832273197671E+00
        pair_coeff 54      66   4.288601739941917956E-01 3.746056886190522572E+00
        pair_coeff 55  66   2.692761857664918157E-01 3.452462297648919431E+00
        pair_coeff 56      66   1.207132438148451475E-01 3.613093205741105152E+00
        pair_coeff 57     66   3.164052463383004721E-01 3.472392418844832296E+00
        pair_coeff 58   66   0.000000000000000000E+00 0.000000000000000000E+00
        pair_coeff 59  66   2.692761857664918157E-01 3.452462297648919431E+00
        pair_coeff 60  66   3.572912051620057983E-01 3.770469473586865128E+00
        pair_coeff 61  66   3.211733836732513225E-01 3.141163244384396869E+00
        pair_coeff 62   66   1.753481764061503856E-01 3.771416059562691103E+00
        pair_coeff 63   66   1.270605531769710694E-01 3.582365233831064533E+00
        pair_coeff 64   66   2.320557182122369999E-01 3.201331989309867510E+00
        pair_coeff 65   66   1.770662891134783812E-01 3.850734566032467665E+00
        pair_coeff 66   66   2.197789839249462973E-01 3.645291530929309243E+00
        pair_coeff 1      67   1.691446126797976623E-01 2.985294938784757601E+00
        pair_coeff 2     67   1.038204303792348571E-01 3.238295444039348325E+00
        pair_coeff 3     67   1.557729521826987651E-01 3.026552867598893748E+00
        pair_coeff 4     67   1.557729521826987651E-01 3.026552867598893748E+00
        pair_coeff 5     67   1.362684993430692826E-01 3.132654330460733050E+00
        pair_coeff 6      67   1.059571877347386532E-01 3.247362366332479766E+00
        pair_coeff 7     67   9.149991811937653596E-02 3.327737337717295407E+00
        pair_coeff 8     67   6.710391648259360353E-02 3.504245404295543764E+00
        pair_coeff 9     67   1.118277109009218756E-01 3.218307850690846461E+00
        pair_coeff 10     67   9.584488629822959793E-02 3.302105917046649353E+00
        pair_coeff 11     67   1.037675482704622926E-01 3.258683872122532410E+00
        pair_coeff 12      67   1.015608295071512290E-01 3.259466857310918897E+00
        pair_coeff 13    67   1.612780240082512320E-02 4.438140034683073054E+00
        pair_coeff 14    67   5.939874248642398880E-02 3.858779830233354247E+00
        pair_coeff 15    67   1.235513646855942310E-01 3.474970199400187365E+00
        pair_coeff 16    67   1.795625489418590515E-01 3.334483745402706312E+00
        pair_coeff 17    67   2.167586951297953424E-01 3.317550369341032201E+00
        pair_coeff 18   67   1.334940503517269006E-01 3.425251170357942243E+00
        pair_coeff 19    67   1.367115557872998488E-01 3.331489923654913365E+00
        pair_coeff 20     67   6.634513912854232698E-02 2.653504030845614370E+00
        pair_coeff 21      67   0.000000000000000000E+00 0.000000000000000000E+00
        pair_coeff 22    67   0.000000000000000000E+00 0.000000000000000000E+00
        pair_coeff 23      67   2.662042561611659419E-01 3.132536959416989397E+00
        pair_coeff 24   67   1.570569025311612521E-01 2.625806260038883178E+00
        pair_coeff 25   67   8.637937685043090008E-02 2.900929489772888559E+00
        pair_coeff 26     67   0.000000000000000000E+00 0.000000000000000000E+00
        pair_coeff 27   67   3.637073185416969667E-01 2.282864724856101368E+00
        pair_coeff 28   67   9.449559248627407981E-02 2.448066814448311757E+00
        pair_coeff 29   67   1.203237416459956299E-01 2.953075978826793957E+00
        pair_coeff 30     67   1.924808221665462171E-01 3.180537650420577123E+00
        pair_coeff 31      67   8.111532584620605169E-02 3.195685452558168382E+00
        pair_coeff 32     67   1.893661628589180523E-01 3.279701674707491854E+00
        pair_coeff 33     67   2.887895977576290796E-01 3.364147914463202049E+00
        pair_coeff 34   67   1.944822171822568335E-01 3.268582740519445640E+00
        pair_coeff 35   67   1.253333851332271154E-01 3.138237526839545488E+00
        pair_coeff 36    67   2.467829144763044116E-02 3.110567366814649404E+00
        pair_coeff 37    67   1.391989786659572903E-01 3.563244078823733396E+00
        pair_coeff 38   67   1.258094999745671128E-01 3.175970860479923275E+00
        pair_coeff 39  67   2.158594165642706009E-01 3.194574123915934649E+00
        pair_coeff 40   67   5.542984087504426033E-02 2.555999445121150515E+00
        pair_coeff 41  67   2.196198790769573750E-01 3.249793383002357761E+00
        pair_coeff 42  67   1.795625489418590515E-01 3.334483745402706312E+00
        pair_coeff 43  67   1.705399805009815140E-01 2.982149521307246864E+00
        pair_coeff 44   67   9.200230410212105470E-02 3.346023328270764097E+00
        pair_coeff 45  67   2.051701662942675142E-01 3.198087518325217538E+00
        pair_coeff 46   67   9.952850481329482413E-02 3.088563953776058746E+00
        pair_coeff 47   67   1.228460332960751161E-01 3.157723407013565797E+00
        pair_coeff 48  67   1.349222298646011453E-01 3.410138798895884893E+00
        pair_coeff 49   67   1.557729521826987651E-01 3.026552867598893748E+00
        pair_coeff 50  67   1.278246795834196148E-01 3.335370348482007863E+00
        pair_coeff 51  67   1.584171463231851262E-01 3.029182413485949965E+00
        pair_coeff 52  67   1.425145517695953212E-01 3.174143260066013106E+00
        pair_coeff 53   67   1.795625489418590515E-01 3.334483745402706312E+00
        pair_coeff 54      67   3.608170374432017602E-01 3.379416907025193595E+00
        pair_coeff 55  67   2.265527122683737016E-01 3.114557470430365349E+00
        pair_coeff 56      67   1.015608295071512290E-01 3.259466857310918897E+00
        pair_coeff 57     67   2.662042561611659419E-01 3.132536959416989397E+00
        pair_coeff 58   67   0.000000000000000000E+00 0.000000000000000000E+00
        pair_coeff 59  67   2.265527122683737016E-01 3.114557470430365349E+00
        pair_coeff 60  67   3.006032314691269858E-01 3.401440147220920363E+00
        pair_coeff 61  67   1.194644161845258429E-01 3.246658638196322055E+00
        pair_coeff 62   67   2.135172342494472131E-01 3.198981952667974138E+00
        pair_coeff 63   67   1.069010720818995841E-01 3.231746341860607608E+00
        pair_coeff 64   67   1.952376598350860082E-01 2.888006183129844473E+00
        pair_coeff 65   67   2.140384144044120418E-01 3.270244578605614905E+00
        pair_coeff 66   67   3.212613590771104533E-01 2.999274180977609561E+00
        pair_coeff 67   67   1.194971397251269885E-01 3.100004256511835088E+00
        pair_coeff 1      68     4.228207516674085675E-01 3.056859151858752899E+00
        pair_coeff 2     68     4.910239828909634396E-01 2.981611307668237565E+00
        pair_coeff 3     68     3.843825015158260361E-01 3.105805176400184386E+00
        pair_coeff 4     68     3.843825015158260361E-01 3.105805176400184386E+00
        pair_coeff 5     68     3.014499067379129427E-01 3.273761725414885415E+00
        pair_coeff 6      68     2.990356735930130294E-01 3.258641081240354787E+00
        pair_coeff 7     68     2.990356735930130294E-01 3.258641081240354787E+00
        pair_coeff 8     68     2.990356735930130294E-01 3.258641081240354787E+00
        pair_coeff 9     68     2.990356735930130294E-01 3.258641081240354787E+00
        pair_coeff 10     68     2.990356735930130294E-01 3.258641081240354787E+00
        pair_coeff 11     68     2.990356735930130294E-01 3.258641081240354787E+00
        pair_coeff 12      68     1.969066010196180716E-01 3.482000009875157343E+00
        pair_coeff 13    68     3.126865710011655919E-02 4.741144586247799886E+00
        pair_coeff 14    68     1.151625537581669190E-01 4.122229798668242573E+00
        pair_coeff 15    68     2.395419512585078570E-01 3.712216383328954539E+00
        pair_coeff 16    68     3.481366916176150683E-01 3.562138516112925313E+00
        pair_coeff 17    68     4.202527500668978289E-01 3.544049049891872194E+00
        pair_coeff 18   68     2.588188757285546648E-01 3.659102893548325852E+00
        pair_coeff 19    68     2.650569899912606497E-01 3.558940297566233646E+00
        pair_coeff 20     68     1.286302593565866181E-01 2.834666362961839603E+00
        pair_coeff 21      68     0.000000000000000000E+00 0.000000000000000000E+00
        pair_coeff 22    68     0.000000000000000000E+00 0.000000000000000000E+00
        pair_coeff 23      68     5.161180300714267588E-01 3.346404243736659900E+00
        pair_coeff 24   68     1.091960338095528060E+00 2.267299599251422659E+00
        pair_coeff 25   68     1.091960338095528060E+00 2.267299599251422659E+00
        pair_coeff 26     68     0.000000000000000000E+00 0.000000000000000000E+00
        pair_coeff 27   68     8.045846089363817288E-01 2.385694166082639622E+00
        pair_coeff 28   68     2.090408838393064406E-01 2.558337624572998514E+00
        pair_coeff 29   68     2.661772960911888974E-01 3.086094440015471729E+00
        pair_coeff 30     68     3.731826988633197284E-01 3.397682079611450412E+00
        pair_coeff 31      68     2.524358768718786838E-01 3.154960092081345202E+00
        pair_coeff 32     68     4.189112847674477114E-01 3.427432675553883090E+00
        pair_coeff 33     68     6.388534234294728220E-01 3.515682714787159213E+00
        pair_coeff 34   68     3.770630126787305469E-01 3.491738260580458331E+00
        pair_coeff 35   68     2.772595092901040115E-01 3.279596411493302277E+00
        pair_coeff 36    68     5.459272459301211383E-02 3.250679875779549644E+00
        pair_coeff 37    68     3.079326428276232264E-01 3.723746973975487151E+00
        pair_coeff 38   68     2.439200342906357177E-01 3.392803501821101797E+00
        pair_coeff 39  68     4.185092246687046047E-01 3.412676863417832607E+00
        pair_coeff 40   68     1.074676291512047521E-01 2.730504859465051837E+00
        pair_coeff 41  68     4.258000265972445297E-01 3.471666099725899457E+00
        pair_coeff 42  68     3.481366916176150683E-01 3.562138516112925313E+00
        pair_coeff 43  68     4.896090631997686571E-01 2.983985758054453097E+00
        pair_coeff 44   68     1.783744882218230021E-01 3.574465939406219039E+00
        pair_coeff 45  68     3.977848573281826949E-01 3.416430127342078293E+00
        pair_coeff 46   68     2.201745718076525138E-01 3.227685340208292786E+00
        pair_coeff 47   68     2.381744515327116618E-01 3.373310242361340361E+00
        pair_coeff 48  68     2.615878367038697028E-01 3.642958757134699077E+00
        pair_coeff 49   68     3.445971896229899079E-01 3.162881024422723453E+00
        pair_coeff 50  68     2.478270737383122535E-01 3.563085650127790327E+00
        pair_coeff 51  68     3.504466124968692586E-01 3.165629015669813917E+00
        pair_coeff 52  68     3.152672741451525984E-01 3.317119483865758500E+00
        pair_coeff 53   68     3.481366916176150683E-01 3.562138516112925313E+00
        pair_coeff 54      68     6.995537233959522316E-01 3.610139393576149658E+00
        pair_coeff 55  68     4.392414353153730744E-01 3.327197243460355836E+00
        pair_coeff 56      68     1.969066010196180716E-01 3.482000009875157343E+00
        pair_coeff 57     68     5.161180300714267588E-01 3.346404243736659900E+00
        pair_coeff 58   68     0.000000000000000000E+00 0.000000000000000000E+00
        pair_coeff 59  68     4.392414353153730744E-01 3.327197243460355836E+00
        pair_coeff 60  68     5.828109208179663714E-01 3.633666223556641928E+00
        pair_coeff 61  68     2.642763169106269738E-01 3.392901247311097990E+00
        pair_coeff 62   68     2.860267218407508971E-01 3.634578464727707292E+00
        pair_coeff 63   68     2.072602877620044470E-01 3.452386935315056249E+00
        pair_coeff 64   68     3.785276683511555329E-01 3.085178649883229873E+00
        pair_coeff 65   68     2.888292953006066366E-01 3.711019072424234899E+00
        pair_coeff 66   68     3.585019450441149225E-01 3.513030089156019553E+00
        pair_coeff 67   68     2.643487071424846513E-01 3.239640960354239319E+00
        pair_coeff 68     68     5.847858712655799041E-01 3.385567464934501558E+00
        pair_coeff 1      69      4.228207516674085675E-01 3.056859151858752899E+00
        pair_coeff 2     69      4.910239828909634396E-01 2.981611307668237565E+00
        pair_coeff 3     69      3.843825015158260361E-01 3.105805176400184386E+00
        pair_coeff 4     69      3.843825015158260361E-01 3.105805176400184386E+00
        pair_coeff 5     69      3.014499067379129427E-01 3.273761725414885415E+00
        pair_coeff 6      69      2.990356735930130294E-01 3.258641081240354787E+00
        pair_coeff 7     69      2.990356735930130294E-01 3.258641081240354787E+00
        pair_coeff 8     69      2.990356735930130294E-01 3.258641081240354787E+00
        pair_coeff 9     69      2.990356735930130294E-01 3.258641081240354787E+00
        pair_coeff 10     69      2.990356735930130294E-01 3.258641081240354787E+00
        pair_coeff 11     69      2.990356735930130294E-01 3.258641081240354787E+00
        pair_coeff 12      69      1.969066010196180716E-01 3.482000009875157343E+00
        pair_coeff 13    69      3.126865710011655919E-02 4.741144586247799886E+00
        pair_coeff 14    69      1.151625537581669190E-01 4.122229798668242573E+00
        pair_coeff 15    69      2.395419512585078570E-01 3.712216383328954539E+00
        pair_coeff 16    69      3.481366916176150683E-01 3.562138516112925313E+00
        pair_coeff 17    69      4.202527500668978289E-01 3.544049049891872194E+00
        pair_coeff 18   69      2.588188757285546648E-01 3.659102893548325852E+00
        pair_coeff 19    69      2.650569899912606497E-01 3.558940297566233646E+00
        pair_coeff 20     69      1.286302593565866181E-01 2.834666362961839603E+00
        pair_coeff 21      69      0.000000000000000000E+00 0.000000000000000000E+00
        pair_coeff 22    69      0.000000000000000000E+00 0.000000000000000000E+00
        pair_coeff 23      69      5.161180300714267588E-01 3.346404243736659900E+00
        pair_coeff 24   69      1.091960338095528060E+00 2.267299599251422659E+00
        pair_coeff 25   69      1.091960338095528060E+00 2.267299599251422659E+00
        pair_coeff 26     69      0.000000000000000000E+00 0.000000000000000000E+00
        pair_coeff 27   69      8.045846089363817288E-01 2.385694166082639622E+00
        pair_coeff 28   69      2.090408838393064406E-01 2.558337624572998514E+00
        pair_coeff 29   69      2.661772960911888974E-01 3.086094440015471729E+00
        pair_coeff 30     69      3.731826988633197284E-01 3.397682079611450412E+00
        pair_coeff 31      69      2.524358768718786838E-01 3.154960092081345202E+00
        pair_coeff 32     69      4.189112847674477114E-01 3.427432675553883090E+00
        pair_coeff 33     69      6.388534234294728220E-01 3.515682714787159213E+00
        pair_coeff 34   69      3.770630126787305469E-01 3.491738260580458331E+00
        pair_coeff 35   69      2.772595092901040115E-01 3.279596411493302277E+00
        pair_coeff 36    69      5.459272459301211383E-02 3.250679875779549644E+00
        pair_coeff 37    69      3.079326428276232264E-01 3.723746973975487151E+00
        pair_coeff 38   69      2.439200342906357177E-01 3.392803501821101797E+00
        pair_coeff 39  69      4.185092246687046047E-01 3.412676863417832607E+00
        pair_coeff 40   69      1.074676291512047521E-01 2.730504859465051837E+00
        pair_coeff 41  69      4.258000265972445297E-01 3.471666099725899457E+00
        pair_coeff 42  69      3.481366916176150683E-01 3.562138516112925313E+00
        pair_coeff 43  69      4.896090631997686571E-01 2.983985758054453097E+00
        pair_coeff 44   69      1.783744882218230021E-01 3.574465939406219039E+00
        pair_coeff 45  69      3.977848573281826949E-01 3.416430127342078293E+00
        pair_coeff 46   69      2.201745718076525138E-01 3.227685340208292786E+00
        pair_coeff 47   69      2.381744515327116618E-01 3.373310242361340361E+00
        pair_coeff 48  69      2.615878367038697028E-01 3.642958757134699077E+00
        pair_coeff 49   69      3.445971896229899079E-01 3.162881024422723453E+00
        pair_coeff 50  69      2.478270737383122535E-01 3.563085650127790327E+00
        pair_coeff 51  69      3.504466124968692586E-01 3.165629015669813917E+00
        pair_coeff 52  69      3.152672741451525984E-01 3.317119483865758500E+00
        pair_coeff 53   69      3.481366916176150683E-01 3.562138516112925313E+00
        pair_coeff 54      69      6.995537233959522316E-01 3.610139393576149658E+00
        pair_coeff 55  69      4.392414353153730744E-01 3.327197243460355836E+00
        pair_coeff 56      69      1.969066010196180716E-01 3.482000009875157343E+00
        pair_coeff 57     69      5.161180300714267588E-01 3.346404243736659900E+00
        pair_coeff 58   69      0.000000000000000000E+00 0.000000000000000000E+00
        pair_coeff 59  69      4.392414353153730744E-01 3.327197243460355836E+00
        pair_coeff 60  69      5.828109208179663714E-01 3.633666223556641928E+00
        pair_coeff 61  69      2.642763169106269738E-01 3.392901247311097990E+00
        pair_coeff 62   69      2.860267218407508971E-01 3.634578464727707292E+00
        pair_coeff 63   69      2.072602877620044470E-01 3.452386935315056249E+00
        pair_coeff 64   69      3.785276683511555329E-01 3.085178649883229873E+00
        pair_coeff 65   69      2.888292953006066366E-01 3.711019072424234899E+00
        pair_coeff 66   69      3.585019450441149225E-01 3.513030089156019553E+00
        pair_coeff 67   69      2.643487071424846513E-01 3.239640960354239319E+00
        pair_coeff 68     69      5.847858712655799041E-01 3.385567464934501558E+00
        pair_coeff 69      69      5.847858712655799041E-01 3.385567464934501558E+00
	#water spce
	pair_coeff 70 70 0.1553 3.166 7.9
        pair_coeff 71 71 0 0
	#           bond_id     k_harmonic               r0
        bond_coeff 1    3.752390057361376989E+02 1.0000000000E+00
        bond_coeff 2    4.469407265774378857E+02 1.0000000000E+00
        bond_coeff 3    3.492741395793498782E+02 1.0900000000E+00
        bond_coeff 4    1.109292543021032543E+03 1.1200000000E+00
        bond_coeff 5    6.002423518164436018E+02 1.2300000000E+00
        bond_coeff 6    5.004182600382409305E+02 1.2500000000E+00
        bond_coeff 7    4.997323135755258363E+02 1.3200000000E+00
        bond_coeff 8    3.750034177820267587E+02 1.3300000000E+00
        bond_coeff 9    4.481438814531548473E+02 1.3300000000E+00
        bond_coeff 10   4.988771510516252761E+02 1.3300000000E+00
        bond_coeff 11   4.506166347992351575E+02 1.3400000000E+00
        bond_coeff 12   5.021156787762906788E+02 1.3400000000E+00
        bond_coeff 13   4.509063097514340939E+02 1.3600000000E+00
        bond_coeff 14   5.006787762906309922E+02 1.3800000000E+00
        bond_coeff 15   3.999040630975143245E+02 1.3900000000E+00
        bond_coeff 16   4.987256214149139169E+02 1.3900000000E+00
        bond_coeff 17   4.000573613766730432E+02 1.4000000000E+00
        bond_coeff 18   3.997916347992352257E+02 1.4300000000E+00
        bond_coeff 19   4.501321462715105213E+02 1.4300000000E+00
        bond_coeff 20   3.002216180688336635E+02 1.4350000000E+00
        bond_coeff 21   4.498431883365200861E+02 1.4700000000E+00
        bond_coeff 22   2.999759082217973400E+02 1.4800000000E+00
        bond_coeff 23   3.999678776290630822E+02 1.4800000000E+00
        bond_coeff 24   4.502256214149139737E+02 1.4800000000E+00
        bond_coeff 25   4.501075525812619276E+02 1.5000000000E+00
        bond_coeff 26   2.998439770554493293E+02 1.5200000000E+00
        bond_coeff 27   4.000342973231357746E+02 1.5300000000E+00
        bond_coeff 28   2.998509560229445583E+02 1.6100000000E+00
        bond_coeff 29   2.997267686424473823E+02 1.6300000000E+00
        bond_coeff 30   2.059762906309751429E+02 1.7800000000E+00
        bond_coeff 31   4.498158699808795404E+02 1.7800000000E+00
        bond_coeff 32   4.498283460803058915E+02 1.8300000000E+00
        bond_coeff 33   3.000447179732313998E+02 1.8700000000E+00
        bond_coeff 34   5.996787762906310348E+01 1.9800000000E+00
        bond_coeff 35   6.003824091778202643E+01 2.0000000000E+00
        bond_coeff 36   5.003070745697896768E+02 2.0400000000E+00
        bond_coeff 37   6.303570745697896882E+01 2.2100000000E+00
        bond_coeff 38   5.544933078393881942E+02 1.0000000000E+00
        bond_coeff 39   3.499282982791586960E+02 1.1000000000E+00
        bond_coeff 40   5.997939651051625560E+02 1.7580000000E+00
        bond_coeff 41   4.498287762906309695E+02 1.5300000000E+00
        bond_coeff 42   4.443412045889101023E+02 1.9379900000E+00
        bond_coeff 43   5.996787762906310491E+02 1.7600000000E+00
        bond_coeff 44   5.010264698852772653E+02 1.2650000000E+00
        bond_coeff 45   4.486555927342256496E+02 1.3500000000E+00
        bond_coeff 46   5.551285014340344333E+02 1.6329900000E+00
        bond_coeff 47   3.502490798279158639E+02 2.3383900000E+00
        bond_coeff 48   6.001610301147227347E+02 2.9028300000E+00
        bond_coeff 49   4.458838312619503199E+02 2.7938800000E+00
        bond_coeff 50   4.438154039196940630E+02 2.9118900000E+00
        bond_coeff 51   4.093283460803059484E+02 2.0770000000E+00
        bond_coeff 52   6.001731835564053199E+02 2.8740700000E+00
        bond_coeff 53   8.843212237093690931E+01 1.1000000000E+00
        bond_coeff 54   5.616634799235181674E+01 1.8400000000E+00
        bond_coeff 55   5.138623326959847191E+02 1.0100000000E+00
        bond_coeff 56   3.107074569789675138E+02 1.4100000000E+00
        bond_coeff 57   4.421606118546845323E+02 1.0200000000E+00
        bond_coeff 58   2.390057361376672986E+02 1.4600000000E+00
        bond_coeff 59   5.138623326959847191E+02 1.2900000000E+00
        bond_coeff 60   4.421606118546845323E+02 9.7200000000E-01
        bond_coeff 61   8.126195028680688210E+02 1.2200000000E+00
        bond_coeff 62   4.660611854684512423E+02 1.2200000000E+00
        bond_coeff 63   2.390057361376672986E+02 1.5400000000E+00
        bond_coeff 64   1.792543021032504669E+02 1.5600000000E+00
        bond_coeff 65   2.270554493307839437E+02 1.5400000000E+00
        bond_coeff 66   1.063575525812619560E+02 1.7600000000E+00
        bond_coeff 67   1.314531548757170185E+02 1.6900000000E+00
        bond_coeff 68   2.031548757170172053E+02 1.7500000000E+00
        bond_coeff 69   2.031548757170172053E+02 1.5100000000E+00
        bond_coeff 70   1.434034416826003735E+02 1.5700000000E+00
        bond_coeff 71   1.792543021032504669E+02 9.7100000000E-01
        bond_coeff 72   1.912045889101338503E+02 1.5000000000E+00
        bond_coeff 73   2.629063097514340370E+02 1.4500000000E+00
        bond_coeff 74   5.497131931166347840E+02 1.5200000000E+00
        bond_coeff 75   8.365200764818355594E+01 1.0300000000E+00
        bond_coeff 76   1.912045889101338503E+02 1.7400000000E+00
        bond_coeff 77   1.912045889101338503E+02 1.7200000000E+00
        bond_coeff 78   2.270554493307839437E+02 1.6400000000E+00
        bond_coeff 79   2.031548757170172053E+02 1.6700000000E+00
        bond_coeff 80   1.912045889101338503E+02 1.6600000000E+00
        bond_coeff 81   2.151051625239005887E+02 1.6500000000E+00
        bond_coeff 82   5.138623326959847191E+02 1.3100000000E+00
        bond_coeff 83   1.553537284894837569E+02 1.0100000000E+00
        bond_coeff 84   3.585086042065009337E+01 1.8900000000E+00
        bond_coeff 85   1.015774378585086026E+02 1.9300000000E+00
        bond_coeff 86   1.553537284894837569E+02 1.3600000000E+00
        bond_coeff 87   1.673040152963671119E+02 1.7900000000E+00
        bond_coeff 88   1.147227533460803102E+02 1.3500000000E+00
        bond_coeff 89   1.553537284894837569E+02 1.3900000000E+00
        bond_coeff 90   2.031548757170172053E+02 1.3800000000E+00
        bond_coeff 91   2.270554493307839437E+02 9.8300000000E-01
        bond_coeff 92   1.553537284894837569E+02 1.3000000000E+00
        bond_coeff 93   4.182600382409177655E+02 1.0800000000E+00
        bond_coeff 94   1.553537284894837569E+02 1.9000000000E+00
        bond_coeff 95   1.314531548757170185E+03 1.1600000000E+00
        bond_coeff 96   1.434034416826003735E+02 1.8000000000E+00
        bond_coeff 97   1.553537284894837569E+02 1.4200000000E+00
        bond_coeff 98   4.780114722753345973E+02 9.8400000000E-01
        bond_coeff 99   1.195028680688336493E+02 1.0800000000E+00
        bond_coeff 100  1.195028680688336493E+02 1.9100000000E+00
        bond_coeff 101  4.182600382409177655E+02 1.0300000000E+00
        bond_coeff 102  5.258126195028680741E+02 1.2800000000E+00
        bond_coeff 103  1.314531548757170185E+02 1.2200000000E+00
        bond_coeff 104  1.434034416826003735E+02 1.1100000000E+00
        bond_coeff 105  1.195028680688336635E+03 1.2100000000E+00
        bond_coeff 106  4.660611854684512423E+02 1.0700000000E+00
        bond_coeff 107  9.560229445506691945E+02 1.2100000000E+00
        bond_coeff 108  6.931166347992351575E+02 1.2100000000E+00
        bond_coeff 109  8.723709369024857097E+01 1.8500000000E+00
        bond_coeff 110  3.943594646271510555E+02 1.1100000000E+00
        bond_coeff 111  1.099426386233269568E+02 2.0900000000E+00
        bond_coeff 112  1.314531548757170185E+02 1.8200000000E+00
        bond_coeff 113  9.918738049713192595E+01 1.9600000000E+00
        bond_coeff 114  5.616634799235181674E+01 1.8600000000E+00
        bond_coeff 115  1.673040152963671119E+02 1.2100000000E+00
        bond_coeff 116  1.673040152963671119E+02 1.2800000000E+00
        bond_coeff 117  1.434034416826003735E+02 1.7100000000E+00
        bond_coeff 118  1.314531548757170185E+02 1.6000000000E+00
        bond_coeff 119  4.541108986615678873E+02 1.2100000000E+00
        bond_coeff 120  4.182600382409177797E+01 1.6100000000E+00
        bond_coeff 121  1.314531548757170185E+02 1.9400000000E+00
        bond_coeff 122  1.553537284894837569E+02 1.5900000000E+00
        bond_coeff 123  1.434034416826003735E+02 2.1000000000E+00
        bond_coeff 124  1.195028680688336493E+02 2.1200000000E+00
        bond_coeff 125  5.736137667304015508E+01 2.1300000000E+00
        bond_coeff 126  2.031548757170172053E+02 1.2600000000E+00
        bond_coeff 127  1.195028680688336635E+03 1.1400000000E+00
        bond_coeff 128  1.912045889101338503E+02 1.2300000000E+00
        bond_coeff 129  7.887189292543021111E+02 1.3000000000E+00
        bond_coeff 130  2.390057361376672986E+02 1.3100000000E+00
        bond_coeff 131  5.975143403441682466E+01 2.0400000000E+00
        bond_coeff 132  8.245697896749521760E+01 1.3400000000E+00
        bond_coeff 133  6.214149139579350276E+02 9.3800000000E-01
        bond_coeff 134  3.107074569789675138E+02 1.1600000000E+00
        bond_coeff 135  3.465583173996176214E+01 2.0700000000E+00
        bond_coeff 136  6.094646271510516300E+01 1.1600000000E+00
        bond_coeff 137  9.321223709369024846E+01 2.1600000000E+00
        bond_coeff 138  4.302103250478011631E+01 2.2300000000E+00
        bond_coeff 139  2.390057361376673128E+01 2.0500000000E+00
        bond_coeff 140  8.962715105162524196E+02 1.1900000000E+00
        bond_coeff 141  7.289674952198853362E+02 1.4700000000E+00
        bond_coeff 142  3.943594646271510555E+02 1.5700000000E+00
        bond_coeff 143  1.195028680688336635E+03 1.1800000000E+00
        bond_coeff 144  5.497131931166347840E+01 1.8700000000E+00
        bond_coeff 145  1.063575525812619617E+03 1.1700000000E+00
        bond_coeff 146  2.151051625239005887E+02 1.1300000000E+00
        bond_coeff 147  5.975143403441682466E+01 2.0200000000E+00
        bond_coeff 148  1.792543021032504669E+02 1.0700000000E+00
        bond_coeff 149  2.509560229445506820E+02 1.1400000000E+00
        bond_coeff 150  1.553537284894837569E+02 1.0600000000E+00
        bond_coeff 151  5.377629063097514290E+02 1.4600000000E+00
        bond_coeff 152  8.126195028680688210E+02 1.1700000000E+00
        bond_coeff 153  9.201720841300191012E+01 2.1500000000E+00
        bond_coeff 154  2.390057361376672986E+02 1.0400000000E+00
        bond_coeff 155  6.094646271510516300E+01 1.4000000000E+00
        bond_coeff 156  1.314531548757170185E+03 1.1100000000E+00
        bond_coeff 157  4.660611854684512423E+02 1.5600000000E+00
        bond_coeff 158  7.528680688336520461E+02 1.4900000000E+00
        bond_coeff 159  5.019120458891013641E+02 1.5400000000E+00
        bond_coeff 160  3.585086042065009337E+01 2.1700000000E+00
        bond_coeff 161  3.585086042065009337E+01 2.2700000000E+00
        bond_coeff 162  6.692160611854684475E+02 1.4500000000E+00
        bond_coeff 163  7.648183556405354011E+02 1.2500000000E+00
        bond_coeff 164  8.484703632887188860E+02 1.2700000000E+00
        bond_coeff 165  5.616634799235181390E+02 1.1600000000E+00
        bond_coeff 166  1.434034416826003735E+03 1.1400000000E+00
        bond_coeff 167  5.019120458891013641E+02 1.1700000000E+00
        bond_coeff 168  5.377629063097514290E+02 1.1900000000E+00
        bond_coeff 169  9.201720841300191296E+02 1.1400000000E+00
        bond_coeff 170  2.270554493307839437E+02 1.2400000000E+00
        bond_coeff 171  1.434034416826003735E+03 1.1300000000E+00
        bond_coeff 172  8.962715105162523344E+01 2.9100000000E+00
        bond_coeff 173  5.736137667304015508E+01 2.2400000000E+00
        bond_coeff 174  4.182600382409177655E+02 7.4300000000E-01
        bond_coeff 175  2.390057361376672986E+02 1.2000000000E+00
        bond_coeff 176  1.111376673040152951E+02 2.3300000000E+00
        bond_coeff 177  9.679732313575526348E+01 2.4200000000E+00
        bond_coeff 178  8.365200764818355594E+01 1.3200000000E+00
        bond_coeff 179  1.159177820267686457E+03 1.2000000000E+00
        bond_coeff 180  1.314531548757170185E+03 1.2000000000E+00
        bond_coeff 181  4.302103250478011773E+02 1.5800000000E+00
        bond_coeff 182  5.377629063097514717E+01 1.4700000000E+00
        bond_coeff 183  1.553537284894837445E+00 2.7700000000E+00
        bond_coeff 184  5.138623326959846693E+00 2.2500000000E+00
        bond_coeff 185  1.003824091778202643E+02 2.1800000000E+00
        bond_coeff 186  5.019120458891013214E+01 1.5200000000E+00
        bond_coeff 187  9.321223709369024846E+01 2.1900000000E+00
        bond_coeff 188  2.748565965583173920E+01 1.4800000000E+00
        bond_coeff 189  1.912045889101338389E+03 1.0700000000E+00
        bond_coeff 190  8.604206500956022907E+00 2.8000000000E+00
        bond_coeff 191  8.723709369024857097E+01 2.5200000000E+00
        bond_coeff 192  6.692160611854685026E-01 2.7900000000E+00
        bond_coeff 193  8.126195028680688210E+02 1.1600000000E+00
        bond_coeff 194  1.792543021032504846E+00 2.6800000000E+00
        bond_coeff 195  4.063097514340344105E+02 1.5900000000E+00
        bond_coeff 196  1.195028680688336493E+02 1.1800000000E+00
        bond_coeff 197  3.465583173996176214E+01 2.5400000000E+00
        bond_coeff 198  1.792543021032504839E+03 1.1000000000E+00
        bond_coeff 199  8.245697896749521760E+02 1.2900000000E+00
        bond_coeff 200  3.346080305927342380E+01 2.4400000000E+00
        bond_coeff 201  1.075525812619502943E+02 2.4100000000E+00
        bond_coeff 202  1.123326959847036335E+02 2.3600000000E+00
        bond_coeff 203  2.031548757170171982E+01 1.4300000000E+00
        bond_coeff 204  2.270554493307839206E+00 2.5700000000E+00
        bond_coeff 205  1.912045889101338503E+01 2.4700000000E+00
        bond_coeff 206  7.648183556405353523E-01 2.7100000000E+00
        bond_coeff 207  1.553537284894837512E+03 1.1200000000E+00
        bond_coeff 208  3.704588910133843171E+00 2.7500000000E+00
        bond_coeff 209  5.019120458891013641E+02 1.1400000000E+00
        bond_coeff 210  7.170172084130018719E-01 2.8600000000E+00
        bond_coeff 211  1.051625239005736212E+01 2.6400000000E+00
        bond_coeff 212  1.912045889101338389E+03 9.8500000000E-01
        bond_coeff 213  1.912045889101338547E+00 2.6100000000E+00
        bond_coeff 214  7.409177820267686343E+00 2.6200000000E+00
        bond_coeff 215  5.975143403441682466E+01 2.4600000000E+00
        bond_coeff 216  3.585086042065009693E+00 2.6600000000E+00
        bond_coeff 217  1.314531548757170265E+00 2.7200000000E+00
        bond_coeff 218  5.855640535372849342E+01 1.6300000000E+00
        bond_coeff 219  5.736137667304014940E+02 1.1200000000E+00
        bond_coeff 220  3.704588910133843171E+01 2.3200000000E+00
        bond_coeff 221  1.673040152963671190E+01 1.4400000000E+00
        bond_coeff 222  1.553537284894837512E+03 1.1600000000E+00
        bond_coeff 223  7.170172084130019385E+00 2.6900000000E+00
        bond_coeff 224  1.003824091778202643E+01 2.4900000000E+00
        bond_coeff 225  3.226577437858508812E+00 2.9200000000E+00
        bond_coeff 226  8.245697896749522027E-01 2.2900000000E+00
        bond_coeff 227  9.799235181644359471E+00 2.4000000000E+00
        bond_coeff 228  1.039674952198852864E+00 2.3700000000E+00
        bond_coeff 229  1.553537284894837445E+00 2.9400000000E+00
        bond_coeff 230  5.855640535372849342E+00 2.9500000000E+00
        bond_coeff 231  1.673040152963671146E+00 2.9600000000E+00
        bond_coeff 232  1.314531548757170119E-02 2.5600000000E+00
        bond_coeff 233  5.258126195028681060E+00 2.5900000000E+00
        bond_coeff 234  1.553537284894837533E+01 2.3800000000E+00
        bond_coeff 235  8.365200764818355310E+02 1.1200000000E+00
        bond_coeff 236  1.912045889101338547E+00 2.5000000000E+00
        bond_coeff 237  2.390057361376673128E+00 2.3000000000E+00
        bond_coeff 238  5.855640535372848490E+02 1.0400000000E+00
        bond_coeff 239  3.346080305927342291E+00 2.9900000000E+00
        bond_coeff 240  9.679732313575526437E-01 2.3400000000E+00
        bond_coeff 241  1.075525812619502863E+00 2.9800000000E+00
        bond_coeff 242  2.270554493307839206E+00 2.7400000000E+00
        bond_coeff 243  1.063575525812619617E+03 1.1600000000E+00
        bond_coeff 244  8.126195028680688210E+02 1.5000000000E+00
        bond_coeff 245  1.314531548757170265E+00 2.8400000000E+00
        bond_coeff 246  3.226577437858508812E-01 2.8200000000E+00
        bond_coeff 247  9.082217973231357746E+02 1.2300000000E+00
        bond_coeff 248  4.660611854684512423E+02 1.0500000000E+00
        bond_coeff 249  3.346080305927342291E+00 2.8800000000E+00
        bond_coeff 250  1.434034416826003735E+03 1.1800000000E+00
        bond_coeff 251  1.673040152963671062E+03 1.1500000000E+00
        bond_coeff 252  6.333652007648183258E+00 2.9000000000E+00

       # Dummy bond for extra excluded interactions
        bond_coeff 253  0.000000000000000000E+00 0.0000000000E+00
#water spce
	bond_coeff 254 100 1.0
       #            angle_id     k_harmonic               theta0
        angle_coeff 1    4.531159764110539356E+01 9.0000000000E+01
        angle_coeff 2    5.009172539172424621E+01 9.0000000000E+01
        angle_coeff 3    4.777119165305969517E+01 9.6000000000E+01
        angle_coeff 4    5.495507667712937661E+01 1.0000000000E+02
        angle_coeff 5    4.755587910082016379E+01 1.0300000000E+02
        angle_coeff 6    5.503449877865421058E+01 1.0400000000E+02
        angle_coeff 7    5.017089249514589966E+01 1.0800000000E+02
        angle_coeff 8    3.017313270271808179E+01 1.0950000000E+02
        angle_coeff 9    3.388969514161131968E+01 1.0950000000E+02
        angle_coeff 10   4.026093651823891406E+01 1.0950000000E+02
        angle_coeff 11   4.503936558918574207E+01 1.0950000000E+02
        angle_coeff 12   4.769404884227261476E+01 1.0950000000E+02
        angle_coeff 13   5.512715332021083015E+01 1.0950000000E+02
        angle_coeff 14   4.763495597414375737E+01 1.0960000000E+02
        angle_coeff 15   5.511390518798809524E+01 1.1100000000E+02
        angle_coeff 16   5.509974690868934033E+01 1.1300000000E+02
        angle_coeff 17   4.824003116558784221E+00 1.1500000000E+02
        angle_coeff 18   4.506986336232746027E+01 1.1500000000E+02
        angle_coeff 19   5.979372060785910747E+01 1.1500000000E+02
        angle_coeff 20   4.480849815265150937E+01 1.1600000000E+02
        angle_coeff 21   5.977192415460783081E+01 1.1600000000E+02
        angle_coeff 22   6.016393470016820544E+01 1.1700000000E+02
        angle_coeff 23   3.487998772914675527E+01 1.2000000000E+02
        angle_coeff 24   3.980949179939617721E+01 1.2000000000E+02
        angle_coeff 25   4.518712718236594128E+01 1.2000000000E+02
        angle_coeff 26   4.742781120730183630E+01 1.2000000000E+02
        angle_coeff 27   5.011662889878671479E+01 1.2000000000E+02
        angle_coeff 28   5.997562448553279069E+01 1.2000000000E+02
        angle_coeff 29   6.983461614923112393E+01 1.2000000000E+02
        angle_coeff 30   6.007257868741400131E+01 1.2100000000E+02
        angle_coeff 31   6.009101308875088421E+01 1.2200000000E+02
        angle_coeff 32   3.481463446143215634E+01 1.2300000000E+02
        angle_coeff 33   5.989285210123679093E+01 1.2400000000E+02
        angle_coeff 34   3.000747691187498489E+01 1.2500000000E+02
        angle_coeff 35   6.007786695576940872E+01 1.2500000000E+02
        angle_coeff 36   4.491393398374964363E+01 1.2600000000E+02
        angle_coeff 37   4.999795670460907360E+01 1.2600000000E+02
        angle_coeff 38   6.016599430023244111E+01 1.2600000000E+02
        angle_coeff 39   5.011888465123802661E+01 1.3200000000E+02
        angle_coeff 40   4.751869253127933490E+01 1.5500000000E+02
        angle_coeff 41   2.849707999314575346E+01 1.8000000000E+02
        angle_coeff 42   4.599505140337510767E+01 1.0950000000E+02
        angle_coeff 43   5.247673834306662144E+01 1.0757000000E+02
        angle_coeff 44   6.547197129315762254E+01 1.1130000000E+02
        angle_coeff 45   5.501891643302533197E+01 9.7400000000E+01
        angle_coeff 46   5.502468723625295155E+01 1.0675000000E+02
        angle_coeff 47   4.750189404085062250E+01 1.0853000000E+02
        angle_coeff 48   6.553349252783840484E+01 1.0950000000E+02
        angle_coeff 49   5.495659489660530284E+01 1.0760000000E+02
        angle_coeff 50   4.748167072974365510E+01 1.0950000000E+02
        angle_coeff 51   5.499310277888685761E+01 1.1030000000E+02
        angle_coeff 52   5.502340047659377120E+01 1.1140000000E+02
        angle_coeff 53   6.004396397718814882E+01 1.1720000000E+02
        angle_coeff 54   6.000230905626986555E+01 1.2140000000E+02
        angle_coeff 55   4.824003116558784399E+01 1.8000000000E+02
        angle_coeff 56   1.804601961048520877E+02 1.0900000000E+02
        angle_coeff 57   1.922293393290815686E+02 1.0600000000E+02
        angle_coeff 58   1.451527664321636166E+02 1.2600000000E+02
        angle_coeff 59   1.451527664321636166E+02 9.6200000000E+01
        angle_coeff 60   1.569219096563931259E+02 1.1400000000E+02
        angle_coeff 61   2.039984825533110495E+02 1.1900000000E+02
        angle_coeff 62   2.393059122259994922E+02 1.3000000000E+02
        angle_coeff 63   2.981516283471469251E+02 1.0700000000E+02
        angle_coeff 64   1.569219096563931259E+02 1.3400000000E+02
        angle_coeff 65   2.393059122259994922E+02 1.0100000000E+02
        angle_coeff 66   2.863824851229174442E+02 1.1300000000E+02
        angle_coeff 67   3.687664876925238104E+02 1.3400000000E+02
        angle_coeff 68   3.569973444682943295E+02 1.1900000000E+02
        angle_coeff 69   3.334590580198353678E+02 1.2600000000E+02
        angle_coeff 70   2.510750554502289731E+02 8.9600000000E+01
        angle_coeff 71   3.805356309167532913E+02 1.1400000000E+02
        angle_coeff 72   2.863824851229174442E+02 1.3500000000E+02
        angle_coeff 73   1.451527664321636166E+02 8.8300000000E+01
        angle_coeff 74   1.333836232079341642E+02 6.0000000000E+01
        angle_coeff 75   3.805356309167532913E+02 1.7900000000E+02
        angle_coeff 76   2.510750554502289731E+02 1.8000000000E+02
        angle_coeff 77   4.707657289691792926E+02 1.7800000000E+02
        angle_coeff 78   4.707657289691793068E+01 5.9900000000E+01
        angle_coeff 79   4.707657289691793068E+01 6.0300000000E+01
        angle_coeff 80   2.510750554502289731E+02 1.2400000000E+02
        angle_coeff 81   7.061485934537689673E+02 1.1800000000E+02
        angle_coeff 82   1.176914322422948231E+02 1.4400000000E+02
        angle_coeff 83   6.276876386255725038E+02 1.2300000000E+02
        angle_coeff 84   4.707657289691792926E+02 1.1800000000E+02
        angle_coeff 85   3.334590580198353678E+02 9.4800000000E+01
        angle_coeff 86   9.023009805242604386E+01 1.7500000000E+02
        angle_coeff 87   1.569219096563931259E+02 8.2800000000E+01
        angle_coeff 88   1.176914322422948231E+02 7.7600000000E+01
        angle_coeff 89   2.393059122259994922E+02 1.4500000000E+02
        angle_coeff 90   2.510750554502289731E+02 5.0800000000E+01
        angle_coeff 91   3.805356309167532913E+02 1.0400000000E+02
        angle_coeff 92   2.628441986744584824E+02 8.4400000000E+01
        angle_coeff 93   2.157676257775405304E+02 6.3300000000E+01
        angle_coeff 94   2.157676257775405304E+02 6.1000000000E+01
        angle_coeff 95   2.981516283471469251E+02 1.7300000000E+02
        angle_coeff 96   1.922293393290815686E+02 1.7300000000E+02
        angle_coeff 97   8.238400256960638046E+01 5.0900000000E+01
        angle_coeff 98   4.315352515550810608E+02 1.2700000000E+02
        angle_coeff 99   6.276876386255724327E+01 6.7800000000E+01
        angle_coeff 100  1.569219096563931259E+02 1.8000000000E+02
        angle_coeff 101  5.884571612114741583E+02 1.1800000000E+02
        angle_coeff 102  3.017313270271808179E+01 1.1000000000E+02
        angle_coeff 103  2.275367690017699829E+02 9.4800000000E+01
        angle_coeff 104  4.315352515550810608E+02 1.7300000000E+02
        angle_coeff 105  3.452282012440647918E+01 7.8500000000E+01
        angle_coeff 106  7.061485934537689957E+01 1.3800000000E+02
        angle_coeff 107  7.061485934537689957E+01 1.6800000000E+02
        angle_coeff 108  1.569219096563931259E+02 1.6700000000E+02
        angle_coeff 109  1.804601961048520664E+01 1.4900000000E+02
        angle_coeff 110  3.334590580198353678E+02 1.4400000000E+02
        angle_coeff 111  3.569973444682943295E+02 1.4800000000E+02
        angle_coeff 112  3.216899147956058300E+02 1.4400000000E+02
        angle_coeff 113  3.569973444682943295E+02 1.4800000000E+02
        angle_coeff 114  3.216899147956058300E+02 1.4700000000E+02
        angle_coeff 115  3.334590580198353678E+02 1.4400000000E+02
        angle_coeff 116  5.099962063832776039E+03 6.0800000000E+01
        angle_coeff 117  1.451527664321636394E+03 6.8000000000E+01
        angle_coeff 118  2.981516283471469251E+02 1.6100000000E+02
        angle_coeff 119  1.569219096563931259E+02 1.5500000000E+02
        angle_coeff 120  3.099207715713764060E+02 1.5400000000E+02
        angle_coeff 121  2.157676257775405304E+02 7.5300000000E+01
        angle_coeff 122  3.099207715713764060E+02 6.4700000000E+01
        angle_coeff 123  5.492266837973758129E+02 1.7300000000E+02
        angle_coeff 124  3.334590580198353564E+03 4.5800000000E+01
        angle_coeff 125  8.630705031101621216E+02 1.2300000000E+02
        angle_coeff 126  5.492266837973758129E+02 1.2300000000E+02
        angle_coeff 127  4.707657289691792926E+02 1.6600000000E+02
        angle_coeff 128  3.805356309167532913E+02 1.6600000000E+02
        angle_coeff 129  2.039984825533110495E+02 1.3900000000E+02
        angle_coeff 130  6.669181160396708208E+01 1.6100000000E+02
        angle_coeff 131  7.453790708678672772E+00 4.4900000000E+01
        angle_coeff 132  2.510750554502289944E+01 8.4800000000E+01
        angle_coeff 133  1.922293393290815686E+02 1.6100000000E+02
        angle_coeff 134  3.334590580198353678E+02 7.0400000000E+01
        angle_coeff 135  6.276876386255725038E+02 1.7300000000E+02
        angle_coeff 136  1.922293393290815500E+00 5.1600000000E+01
        angle_coeff 137  2.157676257775405304E+01 7.3300000000E+01
        angle_coeff 138  7.453790708678672772E+00 1.7400000000E+02
        angle_coeff 139  4.707657289691792926E+02 1.3200000000E+02
        angle_coeff 140  1.451527664321636166E+02 6.9900000000E+01
        angle_coeff 141  1.569219096563931082E+01 1.4400000000E+02
        angle_coeff 142  1.922293393290815629E+03 9.7900000000E+01
        angle_coeff 143  3.923047741409827722E+02 1.5500000000E+02
        angle_coeff 144  5.884571612114741583E+02 1.0400000000E+02
        angle_coeff 145  1.176914322422948231E+02 1.4900000000E+02
        angle_coeff 146  5.099962063832776380E+02 1.5700000000E+02
        angle_coeff 147  2.863824851229174442E+02 1.6600000000E+02
        angle_coeff 148  3.334590580198353678E+02 8.9800000000E+01
        angle_coeff 149  3.923047741409827722E+02 7.9100000000E+01
        angle_coeff 150  6.669181160396707128E+03 4.5200000000E+01
        angle_coeff 151  4.707657289691792926E+02 1.0100000000E+02
        angle_coeff 152  7.453790708678671990E+02 1.2500000000E+02
        angle_coeff 153  1.686910528806225784E+02 4.9600000000E+01
        angle_coeff 154  5.099962063832776380E+02 1.1200000000E+02
#water spce rigid should use shake
	angle_coeff 155 100 109.47
       #               dihedral_id     k                         n phi0
        dihedral_coeff 1    6.381453154875716960E-01 -1  1
        dihedral_coeff 2    8.150095602294454844E-01 -1  1
        dihedral_coeff 3    1.187858508604206387E+00 -1  1
        dihedral_coeff 4    1.400573613766730396E+00 -1  1
        dihedral_coeff 5    2.234703632887188984E+00 -1  1
        dihedral_coeff 6    2.258604206500955947E+00 -1  1
        dihedral_coeff 7    6.668260038240917398E-01  1  1
        dihedral_coeff 8    1.278680688336519822E+00  1  1
        dihedral_coeff 9    3.656787762906309469E-01 -1  2
        dihedral_coeff 10   1.400573613766730396E+00 -1  2
        dihedral_coeff 11   1.699330783938814537E+00 -1  2
        dihedral_coeff 12   3.991395793499043609E+00 -1  2
        dihedral_coeff 13   5.736137667304014975E+00 -1  2
        dihedral_coeff 14   8.006692160611853737E+00 -1  2
        dihedral_coeff 15   9.990439770554491616E+00 -1  2
        dihedral_coeff 16   0.000000000000000000E+00  1  2
        dihedral_coeff 17   9.990439770554492005E-02  1  2
        dihedral_coeff 18   4.995219885277246141E-01  1  2
        dihedral_coeff 19   7.504780114722753304E-01  1  2
        dihedral_coeff 20   1.216539196940726431E+00  1  2
        dihedral_coeff 21   3.991395793499043609E+00  1  2
        dihedral_coeff 22   2.509560229445506607E-01  1  3
        dihedral_coeff 23   3.011472275334607929E-01  1  3
        dihedral_coeff 24   3.107074569789675111E-01  1  3
        dihedral_coeff 25   6.046845124282982376E-01  1  3
        dihedral_coeff 26   7.002868068833651982E-01  1  3
        dihedral_coeff 27   7.624282982791585894E-01  1  3
        dihedral_coeff 28   8.723709369024855720E-01  1  3
        dihedral_coeff 29   9.010516252390057268E-01  1  3
        dihedral_coeff 30   9.321223709369024224E-01  1  3
        dihedral_coeff 31   9.990439770554492283E-01  1  3
        dihedral_coeff 32   1.120936902485659692E+00  1  3
        dihedral_coeff 33   1.300191204588910132E+00  1  3
        dihedral_coeff 34   1.414913957934990307E+00  1  3
        dihedral_coeff 35   1.837954110898661453E+00  1  3
        dihedral_coeff 36   2.060229445506692070E+00  1  3
        dihedral_coeff 37   2.270554493307839206E+00  1  3
        dihedral_coeff 38   0.000000000000000000E+00  1  4
        dihedral_coeff 39   2.390057361376672906E-01 -1  6
        dihedral_coeff 40   2.390057361376672906E-01  1  6
        dihedral_coeff 41   9.010516252390057268E-01  1  6
        dihedral_coeff 42   8.365200764818354617E-01 -1  2
        dihedral_coeff 43   6.692160611854683916E-01  1  3
        dihedral_coeff 44   1.673040152963670979E-01 -1  6
        dihedral_coeff 45   9.560229445506691903E-02  1  6
        dihedral_coeff 46   2.390057361376672906E-01 -1  3

       # Dummy dihedral for 1-4 interactions
        dihedral_coeff 47 0.0 1 1

       #               improper_id     k                        xi0
        improper_coeff 1    2.000754348119011894E+01 0.0000000000E+00
        improper_coeff 2    4.001508696238023788E+01 3.5264390000E+01
        improper_coeff 3    8.003017392476047576E+01 0.0000000000E+00
        improper_coeff 4    2.000754348119011894E+01 1.8000000000E+02
        improper_coeff 5    4.001508696238023788E+01 -3.5264390000E+01


# ----------------- Output Section -----------------

include "gen.in.output"

     thermo 1000
     thermo_style custom step atoms temp press pe ke ebond epair eangle edihed ecoul evdwl etotal vol density
     dump 1 all custom 10000 dump.lammpstrj id mol type mass q xu yu zu


# ----------------- Run Section -----------------

include "gen.in.run"

# replicate 5 5 5
# molecule water molecule.water
 mass 71 2.016
# create_atoms 0 random 2887 12495 NULL mol water 12348
 group water type 70 71
8661 atoms in group water
 group gly subtract all water
0 atoms in group gly

 delete_atoms group gly
WARNING: Ignoring 'compress yes' for molecular system (../delete_atoms.cpp:125)
Deleted 0 atoms, new total = 8661

 timestep 1.0
 fix wt water shake 0.0001 20 0 b 254 a 155
  0 = # of size 2 clusters
  0 = # of size 3 clusters
  0 = # of size 4 clusters
  2887 = # of frozen angles
  find clusters CPU = 0.000864029 secs
 pair_modify mix geometric
 #fix ens all nve
 fix ens all npt temp 328 328 100 iso 1 1 1000
 #minimize 1e-5 1e-5 10000 10000
 run 1000000
PPPM initialization ...
  using 12-bit tables for long-range coulomb (../kspace.cpp:332)
  G vector (1/distance) = 0.186656
  grid = 16 16 16
  stencil order = 5
  estimated absolute RMS force accuracy = 0.0304818
  estimated relative force accuracy = 9.1795e-05
  using double precision KISS FFT
  3d grid and FFT values/proc = 3549 1024
Neighbor list info ...
  update every 1 steps, delay 10 steps, check yes
  max neighbors/atom: 2000, page size: 100000
  master list distance cutoff = 16
  ghost atom cutoff = 16
  binsize = 8, bins = 6 6 6
  1 neighbor lists, perpetual/occasional/extra = 1 0 0
  (1) pair lj/cut/coul/long, perpetual
      attributes: half, newton on
      pair build: half/bin/newton
      stencil: half/bin/3d/newton
      bin: standard
Per MPI rank memory allocation (min/avg/max) = 24.51 | 24.98 | 25.27 Mbytes
Step Atoms Temp Press PotEng KinEng E_bond E_pair E_angle E_dihed E_coul E_vdwl TotEng Volume Density 
       0     8661    299.78535   -28.193649   -31792.759    5158.7712            0   -31792.759            0            0    70703.285    6264.9291   -26633.988    88758.767    1.0819218 
    1000     8661    327.30396    94.719278   -30806.106    5632.3173            0   -30806.106            0            0    72002.073    5955.0526   -25173.788    90278.637    1.0637073 
    2000     8661    329.54327   -336.23958    -30715.08     5670.852            0    -30715.08            0            0    72348.173    5701.6382   -25044.228    89715.178     1.070388 
    3000     8661    327.55191    183.63034    -30778.24    5636.5842            0    -30778.24            0            0    72050.941     5932.538   -25141.656     89742.18    1.0700659 
    4000     8661    323.76013   -28.336264     -30719.3    5571.3344            0     -30719.3            0            0    72178.064    5863.4643   -25147.965    90351.269    1.0628522 
    5000     8661    327.28346    284.24319   -30698.051    5631.9646            0   -30698.051            0            0    72060.655    5999.8746   -25066.086    89898.828    1.0682013 
    6000     8661    324.10999   -88.990285   -30781.355    5577.3549            0   -30781.355            0            0    72078.404    5898.2799   -25204.001    90985.488    1.0554436 
    7000     8661     330.7163    8.2661991   -30623.935    5691.0376            0   -30623.935            0            0    72315.062     5824.433   -24932.897     90213.23    1.0644786 
    8000     8661    323.31078    64.851284   -30689.697    5563.6019            0   -30689.697            0            0    72203.483    5868.5294   -25126.095    89589.905    1.0718847 
    9000     8661     333.0828   -127.91026   -30665.868    5731.7608            0   -30665.868            0            0    72357.294    5741.2001   -24934.107    89718.078    1.0703534 
   10000     8661    325.95053    173.92905   -30522.156    5609.0272            0   -30522.156            0            0    72405.449    5832.3251   -24913.129    90018.549    1.0667807 
   11000     8661    324.80324   -69.944606   -30568.578    5589.2844            0   -30568.578            0            0    72458.804    5736.5103   -24979.294    89762.815    1.0698199 
   12000     8661    329.62023   -66.061326   -30646.583    5672.1763            0   -30646.583            0            0     72324.48    5790.2802   -24974.407    89924.836    1.0678924 
   13000     8661    327.09541   -245.51147   -30605.119    5628.7285            0   -30605.119            0            0    72444.209    5715.3271   -24976.391    89977.227    1.0672706 
   14000     8661    331.14643    61.319815   -30667.326    5698.4394            0   -30667.326            0            0    72257.257     5839.272   -24968.886    89562.938    1.0722074 
   15000     8661    331.07609    284.72997   -30770.682     5697.229            0   -30770.682            0            0    72029.057    5960.3661   -25073.453    89548.068    1.0723855 
   16000     8661    336.26406   -295.97514   -30752.027    5786.5046            0   -30752.027            0            0    72228.289    5782.6626   -24965.523    91144.166    1.0536061 
   17000     8661    322.30265   -281.26075   -30748.631    5546.2538            0   -30748.631            0            0    72264.007    5746.1704   -25202.378     89797.24    1.0694098 
   18000     8661    327.55322    15.488376   -30754.041    5636.6067            0   -30754.041            0            0    72147.387    5853.3174   -25117.434    90053.759    1.0663636 
   19000     8661    328.60587     -240.705   -30813.953    5654.7209            0   -30813.953            0            0    72188.448    5756.4847   -25159.232    89540.666    1.0724741 
   20000     8661    328.50263   -193.35043   -30621.686    5652.9443            0   -30621.686            0            0    72370.266    5766.2443   -24968.741    90460.457    1.0615693 
   21000     8661    323.94549   -110.15063   -30671.748    5574.5242            0   -30671.748            0            0    72311.088    5779.5666   -25097.224    89731.904    1.0701885 
   22000     8661    330.84268   -266.86907   -30755.554    5693.2124            0   -30755.554            0            0    72288.095    5718.0422   -25062.342    89789.307    1.0695043 
   23000     8661    331.39276   -0.2320907   -30735.657    5702.6784            0   -30735.657            0            0    72214.911    5806.2188   -25032.979     89244.84    1.0760291 
   24000     8661    329.61715    293.90311   -30772.826    5672.1233            0   -30772.826            0            0    72040.349    5954.6636   -25100.703    89217.818     1.076355 
   25000     8661    328.96778    58.901684   -30801.676    5660.9488            0   -30801.676            0            0    72003.665    5963.6612   -25140.727     90292.01    1.0635498 
   26000     8661    328.16672   -286.06077   -30736.902     5647.164            0   -30736.902            0            0    72263.043    5760.1609   -25089.738    89702.842    1.0705352 
   27000     8661    326.63567    177.31759   -30654.705    5620.8174            0   -30654.705            0            0    72245.837    5858.0324   -25033.888    89328.408    1.0750225 
   28000     8661    325.55292    95.561731   -30739.583     5602.185            0   -30739.583            0            0    72195.735    5830.1019   -25137.398     88875.66    1.0804988 
   29000     8661    333.22753   -30.659784   -30647.743    5734.2515            0   -30647.743            0            0    72357.161    5759.6497   -24913.491    89247.244    1.0760001 
   30000     8661    330.36464   -298.97347   -30768.105    5684.9862            0   -30768.105            0            0    72282.768    5712.1723   -25083.119    89411.999    1.0740175 
   31000     8661    330.80378   -11.331507   -30619.925    5692.5431            0   -30619.925            0            0    72373.809    5765.0062   -24927.382    89480.872    1.0731908 
   32000     8661    325.52682    99.388902   -30532.659     5601.736            0   -30532.659            0            0        72442    5782.4882   -24930.923     89629.38    1.0714126 
   33000     8661     330.9367   -144.89945   -30934.223    5694.8303            0   -30934.223            0            0    71955.472    5872.9196   -25239.393    89981.059    1.0672251 
   34000     8661    330.69248    -93.67736   -30925.491    5690.6278            0   -30925.491            0            0    71901.113    5929.2551   -25234.863    90182.336    1.0648432 
   35000     8661    325.32679   -72.896666   -30857.329    5598.2938            0   -30857.329            0            0    72017.437    5884.4604   -25259.035    90541.298    1.0606215 
   36000     8661    329.66834   -469.44362   -30650.028    5673.0042            0   -30650.028            0            0    72484.262    5620.4055   -24977.024    89825.143    1.0690776 
   37000     8661    324.84246   -11.690071   -30574.403    5589.9594            0   -30574.403            0            0    72405.191    5784.0956   -24984.444    89692.584    1.0706576 
   38000     8661    328.32295    103.77899   -30722.746    5649.8524            0   -30722.746            0            0    72191.719    5849.2341   -25072.894    89217.534    1.0763585 
   39000     8661    329.32416    613.08057   -30519.429    5667.0814            0   -30519.429            0            0    72281.422    5963.1324   -24852.348    89462.426    1.0734121 
   40000     8661    328.70583    440.56061   -30610.362    5656.4411            0   -30610.362            0            0    72169.866    5981.4352   -24953.921    89858.741    1.0686779 
   41000     8661    317.98152   -271.26912   -30608.591    5471.8947            0   -30608.591            0            0     72431.37    5718.2278   -25136.696    89890.301    1.0683027 
   42000     8661    326.96337   -162.21472   -30627.731    5626.4564            0   -30627.731            0            0    72391.857    5741.3895   -25001.274    89909.315    1.0680767 
   43000     8661    328.20696    253.23712   -30693.926    5647.8564            0   -30693.926            0            0    72123.404      5943.01    -25046.07     89807.65    1.0692858 
   44000     8661    329.20787    531.25711   -30850.373    5665.0803            0   -30850.373            0            0    71826.419    6083.2889   -25185.293    89490.492    1.0730754 
   45000     8661    325.72653   -44.324315   -30596.713    5605.1726            0   -30596.713            0            0    72389.569    5772.2795   -24991.541    89914.852     1.068011 
   46000     8661    325.58754    306.40211   -30618.131    5602.7809            0   -30618.131            0            0    72198.309    5941.6259    -25015.35    89578.047    1.0720266 
   47000     8661    328.54337    117.78189   -30649.776    5653.6454            0   -30649.776            0            0    72264.463    5839.7653   -24996.131    89517.204    1.0727552 
   48000     8661    318.57192   -92.960684   -30624.267    5482.0545            0   -30624.267            0            0    72364.541    5765.0723   -25142.212    89502.604    1.0729302 
   49000     8661    316.84152   -41.741157   -30804.309    5452.2774            0   -30804.309            0            0     72060.61    5898.4313   -25352.032    90042.866    1.0664926 
   50000     8661    325.95816    145.83073   -30790.898    5609.1585            0   -30790.898            0            0    72049.155    5920.7504    -25181.74    89517.587    1.0727506 
   51000     8661     331.2259   -27.890335   -30441.722     5699.807            0   -30441.722            0            0    72617.645    5699.2829   -24741.915    89673.692    1.0708832 
   52000     8661    327.69075    72.757136   -30738.199    5638.9734            0   -30738.199            0            0    72147.358    5875.0439   -25099.226    89809.122    1.0692683 
   53000     8661    333.74996    14.145711   -30410.271    5743.2415            0   -30410.271            0            0    72624.528    5723.8201    -24667.03    90393.607    1.0623544 
   54000     8661    331.64719   -201.17923   -30885.175    5707.0566            0   -30885.175            0            0    72071.428    5804.1316   -25178.119    89407.152    1.0740757 
   55000     8661    324.93244   -249.45412   -30576.048    5591.5077            0   -30576.048            0            0    72461.996     5715.691    -24984.54    90215.481     1.064452 
   56000     8661     327.5619   -64.328843   -30773.238     5636.756            0   -30773.238            0            0    72149.152    5838.3406   -25136.482    90240.883    1.0641524 
   57000     8661    334.33789   -158.55672   -30679.449    5753.3588            0   -30679.449            0            0    72308.571    5770.1273    -24926.09    90092.747    1.0659021 
   58000     8661    323.83406   -492.92749    -30514.81    5572.6066            0    -30514.81            0            0    72625.615    5622.6234   -24942.203    90610.388    1.0598128 
   59000     8661    331.52181   -448.74036   -30428.927     5704.899            0   -30428.927            0            0    72722.503    5603.6792   -24724.028    91394.021    1.0507257 
   60000     8661    323.13877    393.01756   -30721.558    5560.6418            0   -30721.558            0            0    72079.169    5959.4737   -25160.916    89292.269    1.0754576 
   61000     8661      325.585    207.58274    -30739.55    5602.7371            0    -30739.55            0            0    72146.646    5874.5821   -25136.813      89376.4    1.0744452 
   62000     8661    328.62341    64.478479   -30685.234    5655.0228            0   -30685.234            0            0     72193.56    5883.5549   -25030.211     90108.95    1.0657104 
   63000     8661    325.37709     89.58566   -30620.322    5599.1593            0   -30620.322            0            0    72294.436    5848.6528   -25021.162    89552.808    1.0723287 
   64000     8661    325.05679    69.330028   -30697.428    5593.6476            0   -30697.428            0            0    72197.579    5864.5824   -25103.781    89997.731    1.0670274 
   65000     8661    327.89929   -231.04261   -30649.044    5642.5619            0   -30649.044            0            0     72385.31    5729.7503   -25006.482    90088.019     1.065958 
   66000     8661    324.14107    75.598876   -30613.896    5577.8897            0   -30613.896            0            0    72306.638    5834.8977   -25036.007    89546.371    1.0724058 
   67000     8661    320.92126   -308.62503   -30642.365    5522.4825            0   -30642.365            0            0    72417.971    5700.8569   -25119.882    89802.388    1.0693485 
   68000     8661    331.09784   -308.94509   -30711.452    5697.6032            0   -30711.452            0            0    72326.316    5723.3743   -25013.849    89673.459     1.070886 
   69000     8661    327.53278   -39.854775   -30719.991    5636.2549            0   -30719.991            0            0    72189.429    5846.4295   -25083.736    89972.554     1.067326 
   70000     8661    330.43877   -210.53099   -30624.119    5686.2618            0   -30624.119            0            0    72426.637    5707.7207   -24937.857    90034.585    1.0665907 
   71000     8661    326.53652   -198.28804   -30500.327    5619.1112            0   -30500.327            0            0    72575.201    5685.1677   -24881.216    90077.957    1.0660771 
   72000     8661    326.96747   -195.84613   -30526.047     5626.527            0   -30526.047            0            0     72551.43    5677.5115    -24899.52    89872.669    1.0685122 
   73000     8661    335.39234   -34.249022    -30537.56     5771.504            0    -30537.56            0            0    72503.453     5716.273   -24766.056    89703.496    1.0705274 
   74000     8661    327.98033    69.304498   -30549.853    5643.9565            0   -30549.853            0            0    72387.087    5823.2338   -24905.897    90326.726     1.063141 
   75000     8661    324.82747    87.726627   -30644.097    5589.7013            0   -30644.097            0            0    72241.104    5872.1327   -25054.395    90190.196    1.0647504 
   76000     8661    324.83583   -181.15171   -30563.608    5589.8452            0   -30563.608            0            0    72427.613    5771.2995   -24973.763    90583.085    1.0601322 
   77000     8661    333.09649    132.76813   -30631.628    5731.9964            0   -30631.628            0            0    72313.768     5809.394   -24899.632     89034.05    1.0785767 
   78000     8661    328.14446    15.556462   -30629.393    5646.7809            0   -30629.393            0            0     72341.07    5786.4233   -24982.612    89338.922     1.074896 
   79000     8661    330.24816   -300.71243   -30820.325    5682.9817            0   -30820.325            0            0    72194.841    5749.3934   -25137.344    89854.362    1.0687299 
   80000     8661    330.41373     194.7473   -30773.976     5685.831            0   -30773.976            0            0    72065.209     5923.147   -25088.145    89826.379    1.0690629 
   81000     8661    331.85602    12.392342    -30688.68    5710.6502            0    -30688.68            0            0    72191.829    5875.7674    -24978.03    90780.703    1.0578245 
   82000     8661    327.27055    4.4241139   -30626.717    5631.7424            0   -30626.717            0            0    72326.762    5808.1884   -24994.974    89883.905    1.0683787 
   83000     8661    328.90274    459.12121   -30817.216    5659.8295            0   -30817.216            0            0    71838.007     6106.713   -25157.386    90088.295    1.0659548 
   84000     8661    327.21861    361.80793   -30733.656    5630.8486            0   -30733.656            0            0    72069.746    5962.9703   -25102.807    89747.819    1.0699987 
   85000     8661    334.22918    134.45247   -30485.017    5751.4881            0   -30485.017            0            0    72431.453    5840.2588   -24733.529    90851.385    1.0570015 
   86000     8661    329.24762    392.38154   -30651.483    5665.7644            0   -30651.483            0            0    72204.434    5904.4963   -24985.719    89016.727    1.0787865 
   87000     8661    331.35108    40.510351   -30662.321     5701.961            0   -30662.321            0            0    72261.154    5835.5006    -24960.36    89544.338    1.0724302 
   88000     8661     330.2618    307.23489   -30720.177    5683.2165            0   -30720.177            0            0    72117.487    5927.5699   -25036.961    88858.731    1.0807047 
   89000     8661    321.59058   -56.947597   -30620.413    5534.0003            0   -30620.413            0            0    72349.561    5785.7912   -25086.413     89487.25    1.0731143 
   90000     8661     324.9328   -351.69272   -30711.076    5591.5139            0   -30711.076            0            0    72258.849    5793.1927   -25119.562    90765.046    1.0580069 
   91000     8661     328.2264   -130.53859   -30648.125     5648.191            0   -30648.125            0            0    72350.044    5758.3304   -24999.934    89533.575    1.0725591 
   92000     8661    328.72777   -30.221988   -30702.261    5656.8186            0   -30702.261            0            0     72249.37    5806.2114   -25045.442    89438.614    1.0736979 
   93000     8661     327.9623   -247.27094   -30543.567    5643.6462            0   -30543.567            0            0    72548.299    5666.1299   -24899.921    90145.657    1.0652765 
   94000     8661    331.49054    76.660986   -30480.276    5704.3609            0   -30480.276            0            0    72501.204    5781.0832   -24775.915    89858.245    1.0686838 
   95000     8661     326.4137   -45.816148   -30693.697    5616.9976            0   -30693.697            0            0    72217.553    5850.3823   -25076.699     90003.99    1.0669532 
   96000     8661    324.79444    111.73784   -30575.278    5589.1329            0   -30575.278            0            0    72365.313    5820.0291   -24986.145    89660.054    1.0710461 
   97000     8661    328.91195    252.87857   -30702.596     5659.988            0   -30702.596            0            0    72165.298    5891.2769   -25042.608    89115.936    1.0775856 
   98000     8661    328.74768    263.95107    -30756.16    5657.1612            0    -30756.16            0            0    72036.435    5965.3787   -25098.999    89827.311    1.0690518 
   99000     8661    328.08577    -10.63521   -30684.494    5645.7709            0   -30684.494            0            0    72229.033    5847.6565   -25038.723    90127.738    1.0654883 
  100000     8661    330.22582   -77.949333   -30479.617    5682.5974            0   -30479.617            0            0    72552.926    5726.3666    -24797.02    90113.531    1.0656563 
  101000     8661    328.16047    417.51063   -30722.385    5647.0565            0   -30722.385            0            0      72010.4    6026.0505   -25075.328    89927.752    1.0678578 
  102000     8661    332.59014   -273.17067   -30805.025    5723.2831            0   -30805.025            0            0    72134.395    5817.3993   -25081.742    90777.744    1.0578589 
  103000     8661    329.09262    249.97025   -30650.755    5663.0971            0   -30650.755            0            0    72205.526     5904.722   -24987.658    89682.028    1.0707836 
  104000     8661    323.47708    195.30554   -30781.031    5566.4636            0   -30781.031            0            0    72041.361    5933.3768   -25214.567    89523.146     1.072684 
  105000     8661    330.68116   -671.20763   -30755.485     5690.433            0   -30755.485            0            0    72391.235    5613.4471   -25065.052     89981.06    1.0672251 
  106000     8661     318.0952   -413.20624   -30663.325     5473.851            0   -30663.325            0            0    72418.077    5681.1095   -25189.474    90274.108    1.0637607 
  107000     8661    328.48043    30.473446   -30541.533    5652.5622            0   -30541.533            0            0    72473.578    5743.5379   -24888.971     89637.86    1.0713113 
  108000     8661    324.95949   -185.86558   -30633.874    5591.9733            0   -30633.874            0            0    72371.616    5753.4004     -25041.9    89919.617    1.0679544 
  109000     8661    331.28496    -379.6308    -30575.48    5700.8232            0    -30575.48            0            0    72499.412    5682.3834   -24874.657    90784.107    1.0577848 
  110000     8661    329.57431   -46.774677   -30442.685    5671.3861            0   -30442.685            0            0    72567.379    5746.6767   -24771.299    90749.044    1.0581935 
  111000     8661    324.41373     216.4619   -30562.809    5582.5817            0   -30562.809            0            0    72286.256      5908.02   -24980.227    90598.055    1.0599571 
  112000     8661    325.82771    11.862033   -30638.858    5606.9137            0   -30638.858            0            0    72276.622    5844.3715   -25031.944    90365.866    1.0626805 
  113000     8661     333.6415     252.5409   -30667.727    5741.3751            0   -30667.727            0            0    72136.298    5957.5333   -24926.352     90241.14    1.0641493 
  114000     8661    328.53225    547.08734   -30468.655     5653.454            0   -30468.655            0            0    72333.369    5958.4335   -24815.201    89550.842    1.0723523 
  115000     8661    326.85742    49.320926   -30562.793    5624.6333            0   -30562.793            0            0    72453.655    5741.6706   -24938.159    89343.839    1.0748368 
  116000     8661     323.8116    80.850569    -30667.91      5572.22            0    -30667.91            0            0    72222.069    5864.9038    -25095.69    90090.434    1.0659295 
  117000     8661    327.79457   -20.960742   -30693.292    5640.7599            0   -30693.292            0            0      72194.5    5871.1151   -25052.532    90143.756    1.0652989 
  118000     8661    323.97073    155.72015   -30470.805    5574.9584            0   -30470.805            0            0    72475.208    5815.7714   -24895.846    89906.643    1.0681085 
  119000     8661    324.86618    72.457012   -30704.845    5590.3676            0   -30704.845            0            0    72212.232     5846.592   -25114.477    89287.304    1.0755174 
  120000     8661    324.14611   -330.41484   -30812.523    5577.9764            0   -30812.523            0            0    72187.536     5755.228   -25234.547    89715.136    1.0703885 
  121000     8661    323.05309    164.38201   -30578.195    5559.1675            0   -30578.195            0            0    72324.745    5857.1106   -25019.028    89903.979    1.0681401 
  122000     8661    333.30156    231.50977   -30638.998    5735.5254            0   -30638.998            0            0    72260.563    5858.3923   -24903.473     89580.05    1.0720026 
  123000     8661    324.63575    95.048638   -30491.845    5586.4023            0   -30491.845            0            0     72486.99    5781.0477   -24905.442    90240.706    1.0641544 
  124000     8661    326.34816     50.24579   -30599.539    5615.8697            0   -30599.539            0            0    72271.026     5891.261    -24983.67    90881.623    1.0566498 
  125000     8661    327.58477    207.53839   -30444.378    5637.1497            0   -30444.378            0            0    72535.445    5782.0253   -24807.228    89381.855    1.0743797 
  126000     8661    325.16326   -134.98489   -30632.182    5595.4797            0   -30632.182            0            0    72307.872    5816.4051   -25036.702    90171.748    1.0649682 
  127000     8661    328.05511   -155.21636    -30692.42    5645.2434            0    -30692.42            0            0    72286.572    5777.7789   -25047.177    89875.237    1.0684817 
  128000     8661    333.27941   -8.0643769   -30789.576    5735.1442            0   -30789.576            0            0    72120.491    5854.5354   -25054.432    89888.107    1.0683287 
  129000     8661    338.01483    48.285071   -30714.661    5816.6323            0   -30714.661            0            0    72241.125    5807.0472   -24898.028    89776.643    1.0696551 
  130000     8661    329.17491    68.682495   -30601.238    5664.5131            0   -30601.238            0            0    72280.996    5876.5067   -24936.724    90565.738    1.0603353 
  131000     8661    332.92048    253.06339   -30770.518    5728.9677            0   -30770.518            0            0    72121.205    5875.4294   -25041.551    88709.403    1.0825239 
  132000     8661    329.19164     47.40343   -30583.143    5664.8009            0   -30583.143            0            0     72381.93    5792.5784   -24918.342    89411.539     1.074023 
  133000     8661    324.05587   -93.197159   -30760.153    5576.4235            0   -30760.153            0            0    72195.525    5806.4323    -25183.73    89554.638    1.0723068 
  134000     8661    321.74444    125.02782    -30724.24    5536.6479            0    -30724.24            0            0     72161.64    5877.7691   -25187.592    89203.224    1.0765311 
  135000     8661    328.71473   -162.99422   -30647.623    5656.5942            0   -30647.623            0            0    72384.543    5735.9253   -24991.029     89936.08    1.0677589 
  136000     8661    322.67538     -171.694   -30812.155    5552.6678            0   -30812.155            0            0    72085.977    5863.9273   -25259.487    90587.654    1.0600788 
  137000     8661     331.0335   -45.862697   -30765.664    5696.4961            0   -30765.664            0            0    72138.845    5850.1641   -25069.168    89963.074    1.0674385 
  138000     8661    333.93991    -101.7694    -30650.51    5746.5103            0    -30650.51            0            0    72346.471    5764.6304       -24904    89855.018    1.0687221 
  139000     8661    327.82191    526.28007   -30811.965    5641.2304            0   -30811.965            0            0     71880.42    6067.7518   -25170.734    89614.636    1.0715889 
  140000     8661    324.71876    309.37918   -30722.161    5587.8306            0   -30722.161            0            0    72036.134    6001.2663   -25134.331     89857.33    1.0686947 
  141000     8661    329.71328    108.54464    -30722.24    5673.7775            0    -30722.24            0            0    72124.314    5918.5344   -25048.463    90033.179    1.0666073 
  142000     8661    321.25436   -8.5529451   -30699.653    5528.2145            0   -30699.653            0            0    72236.229    5828.9801   -25171.438    89692.195    1.0706623 
  143000     8661    327.43592      -155.96   -30710.421    5634.5882            0   -30710.421            0            0    72242.067    5802.4284   -25075.833    90655.279     1.059288 
  144000     8661    328.90174   -192.21992    -30611.25    5659.8122            0    -30611.25            0            0    72415.302    5735.9669   -24951.438     90235.37    1.0642174 
  145000     8661    334.12738   -127.30514   -30611.554    5749.7362            0   -30611.554            0            0    72363.352     5784.157   -24861.818    90695.182    1.0588219 
  146000     8661    327.15801   -414.40241   -30734.249    5629.8059            0   -30734.249            0            0    72290.626    5737.0547   -25104.443    90513.045    1.0609526 
  147000     8661    328.48977   -18.057921   -30643.198    5652.7231            0   -30643.198            0            0    72270.641     5842.844   -24990.474    90159.843    1.0651089 
  148000     8661    333.07672   -363.69929   -30500.008    5731.6562            0   -30500.008            0            0    72636.309    5621.2601   -24768.352    90103.653    1.0657731 
  149000     8661    332.37703   -604.72797   -30662.058    5719.6158            0   -30662.058            0            0    72512.217    5587.2861   -24942.442    89938.298    1.0677325 
  150000     8661    333.92423   -26.608091   -30600.901    5746.2403            0   -30600.901            0            0    72403.987    5757.5003    -24854.66    89462.346     1.073413 
  151000     8661    328.08031    67.619919   -30654.182     5645.677            0   -30654.182            0            0    72207.211    5897.9829   -25008.505    90030.522    1.0666388 
  152000     8661    324.43667   -400.44639   -30607.145    5582.9764            0   -30607.145            0            0    72498.256    5653.6901   -25024.169    90243.235    1.0641246 
  153000     8661    326.46273   -201.03426    -30788.79    5617.8414            0    -30788.79            0            0    72147.195     5828.324   -25170.949    90193.945    1.0647062 
  154000     8661    321.51677   -410.10751   -30664.841    5532.7301            0   -30664.841            0            0    72374.714    5723.3415   -25132.111    90634.533    1.0595305 
  155000     8661     331.1042   -369.88639   -30672.649    5697.7128            0   -30672.649            0            0    72371.656     5716.454   -24974.936    90633.323    1.0595446 
  156000     8661    327.52988     -815.977   -30829.474     5636.205            0   -30829.474            0            0    72384.464    5547.3668   -25193.269    89912.254    1.0680418 
  157000     8661    323.83619    219.73655   -30696.435    5572.6432            0   -30696.435            0            0    72207.641     5854.427   -25123.792    88975.569    1.0792856 
  158000     8661    330.72583   -237.62276   -30703.364    5691.2017            0   -30703.364            0            0    72295.885    5761.8314   -25012.162    89880.363    1.0684208 
  159000     8661    328.30233   -331.58366   -30763.376    5649.4975            0   -30763.376            0            0    72270.365    5728.5748   -25113.878    89749.695    1.0699763 
  160000     8661    323.66527    176.37441   -30730.792     5569.702            0   -30730.792            0            0    72119.291    5907.2032    -25161.09    89604.047    1.0717155 
  161000     8661    324.02608   -265.21936   -30714.007    5575.9109            0   -30714.007            0            0    72314.257    5733.4722   -25138.096    89547.144    1.0723966 
  162000     8661    332.95302   -77.382551   -30573.583    5729.5276            0   -30573.583            0            0    72434.493    5756.0576   -24844.055    89959.585    1.0674799 
  163000     8661    330.76564    111.51594   -30639.128    5691.8867            0   -30639.128            0            0    72221.882    5900.3795   -24947.241    90562.632    1.0603717 
  164000     8661    324.90763    223.51702   -30571.908    5591.0808            0   -30571.908            0            0    72361.179    5827.0364   -24980.827    88912.681     1.080049 
  165000     8661    325.52667   -426.17989   -30613.107    5601.7334            0   -30613.107            0            0    72511.074    5630.8479   -25011.373     90231.76      1.06426 
  166000     8661    323.52039   -124.84111   -30640.515    5567.2088            0   -30640.515            0            0    72357.545     5760.335   -25073.307    89762.405    1.0698248 
  167000     8661    330.04599    318.37882   -30676.844    5679.5029            0   -30676.844            0            0    72141.364    5939.8253   -24997.341    89904.677    1.0681318 
  168000     8661    330.62547    44.528554   -30736.197    5689.4746            0   -30736.197            0            0    72209.439    5818.0169   -25046.722    89423.533    1.0738789 
  169000     8661    328.47632    187.89053   -30770.575    5652.4916            0   -30770.575            0            0    72046.536    5942.2305   -25118.084    89871.342     1.068528 
  170000     8661    322.55455   -78.025328   -30541.924    5550.5886            0   -30541.924            0            0    72390.772    5827.3277   -24991.335    90847.708    1.0570443 
  171000     8661    324.37158   -4.2259478   -30625.678    5581.8563            0   -30625.678            0            0    72325.572      5810.02   -25043.821    89632.135    1.0713797 
  172000     8661    327.91907   -166.77809   -30592.478    5642.9023            0   -30592.478            0            0    72473.318    5695.4092   -24949.576    89825.169    1.0690773 
  173000     8661    325.55293    -57.95662    -30750.93    5602.1853            0    -30750.93            0            0    72195.868    5813.7206   -25148.745     89411.32    1.0740256 
  174000     8661    323.53463    255.78885    -30587.06    5567.4539            0    -30587.06            0            0    72325.498    5847.1328   -25019.606    88772.771    1.0817512 
  175000     8661    322.91128    269.81134   -30639.672    5556.7272            0   -30639.672            0            0    72241.049    5877.4258   -25082.945    89493.013    1.0730452 
  176000     8661    329.93427    49.869883   -30568.713    5677.5803            0   -30568.713            0            0    72413.521    5777.3879   -24891.132    89512.324    1.0728137 
  177000     8661    321.24699     466.9139    -30666.02    5528.0877            0    -30666.02            0            0     72106.34    5984.5136   -25137.932    89422.378    1.0738928 
  178000     8661    323.17713   -128.65211   -30745.556    5561.3021            0   -30745.556            0            0    72182.895    5830.1454   -25184.254    89789.315    1.0695042 
  179000     8661      323.808    111.72163   -30784.184    5572.1581            0   -30784.184            0            0    72076.817    5900.6124   -25212.025    89431.384    1.0737847 
  180000     8661    328.42217    117.32863   -30705.222    5651.5597            0   -30705.222            0            0    72171.664    5880.4057   -25053.662    89923.507    1.0679082 
  181000     8661    326.29261    204.47368   -30747.903    5614.9138            0   -30747.903            0            0    72088.704    5924.2948    -25132.99    89530.715    1.0725933 
  182000     8661     327.2583   -106.32191   -30787.242    5631.5317            0   -30787.242            0            0    72172.744    5798.3285    -25155.71    89660.443    1.0710414 
  183000     8661    323.61615    240.33674   -30569.378    5568.8567            0   -30569.378            0            0    72278.504     5913.245   -25000.522    90191.181    1.0647388 
  184000     8661    329.45123   -470.04503   -30582.039    5669.2681            0   -30582.039            0            0    72535.252    5641.1371   -24912.771    89923.687     1.067906 
  185000     8661    325.58805    43.504349   -30728.954    5602.7895            0   -30728.954            0            0    72213.119    5822.5403   -25126.165    89346.023    1.0748106 
  186000     8661    325.65993    123.93892   -30716.488    5604.0266            0   -30716.488            0            0    72185.859    5855.9074   -25112.461    89602.715    1.0717315 
  187000     8661    328.72088     288.8588   -30730.246    5656.7001            0   -30730.246            0            0     72079.72    5949.0443   -25073.546      89686.5    1.0707302 
  188000     8661    329.53397    106.84157   -30689.833    5670.6919            0   -30689.833            0            0    72186.688    5888.1143   -25019.142     89784.27    1.0695643 
  189000     8661    336.43821   -141.03032   -30665.194    5789.5014            0   -30665.194            0            0    72362.357    5732.3472   -24875.692    89554.001    1.0723144 
  190000     8661    332.61757   -303.78434   -30585.868     5723.755            0   -30585.868            0            0    72488.454    5688.7237   -24862.113    90615.869    1.0597487 
  191000     8661     325.2441   -85.960483   -30555.428    5596.8708            0   -30555.428            0            0    72444.949    5755.9223   -24958.557    90062.599    1.0662589 
  192000     8661    323.23174   -99.236017   -30538.675    5562.2417            0   -30538.675            0            0    72468.129    5755.1656   -24976.433    90149.008    1.0652369 
  193000     8661    330.62751     219.0973    -30679.57    5689.5097            0    -30679.57            0            0    72158.109    5922.1508    -24990.06    90379.827    1.0625164 
  194000     8661    328.49788    94.076001   -30936.367    5652.8627            0   -30936.367            0            0    71839.071    5984.5337   -25283.504    89983.998    1.0671903 
  195000     8661    325.84575   -35.881554   -30746.631    5607.2242            0   -30746.631            0            0    72200.663    5816.5727   -25139.407    89597.815    1.0717901 
  196000     8661    324.16966   -309.96557    -30684.27    5578.3816            0    -30684.27            0            0     72362.29    5717.3604   -25105.888    89980.033    1.0672373 
  197000     8661    323.70025   -133.89779   -30593.612    5570.3039            0   -30593.612            0            0    72426.554    5739.1416   -25023.308    89842.722    1.0688684 
  198000     8661    330.49771   -321.54774   -30619.491    5687.2761            0   -30619.491            0            0    72414.814    5720.8014   -24932.215    90478.638     1.061356 
  199000     8661    326.15821    101.62657   -30777.692     5612.601            0   -30777.692            0            0    72122.719    5860.4556   -25165.091    88839.248    1.0809417 
  200000     8661    326.93635    193.08243   -30658.657    5625.9915            0   -30658.657            0            0    72247.006    5852.7541   -25032.666    89159.268    1.0770619 
  201000     8661     332.9256    122.56551    -30620.44    5729.0558            0    -30620.44            0            0    72284.667    5857.2904   -24891.384    89970.936    1.0673452 
  202000     8661    331.90565    99.186554   -30743.946    5711.5043            0   -30743.946            0            0    72118.565     5900.212   -25032.442    90014.368    1.0668302 
  203000     8661    332.54156   -183.93256   -30612.968    5722.4471            0   -30612.968            0            0     72465.44    5678.9152   -24890.521    89328.991    1.0750155 
  204000     8661    321.43693    106.22195   -30618.242    5531.3562            0   -30618.242            0            0    72306.427    5836.2081   -25086.886    89651.688     1.071146 
  205000     8661    329.23553     122.6912   -30632.644    5665.5563            0   -30632.644            0            0    72266.898    5865.8802   -24967.088    89905.105    1.0681268 
  206000     8661    326.81371   -209.35438   -30686.634     5623.881            0   -30686.634            0            0    72358.738    5718.2033   -25062.753    89597.947    1.0717885 
  207000     8661    328.02753    278.57792   -30762.642    5644.7686            0   -30762.642            0            0    72012.012     5979.799   -25117.874    89591.526    1.0718653 
  208000     8661    328.80274    64.311557   -30677.895    5658.1088            0   -30677.895            0            0    72231.673    5849.5561   -25019.786    90044.316    1.0664754 
  209000     8661     327.8116    4.6229758   -30595.946    5641.0529            0   -30595.946            0            0    72373.995    5790.6994   -24954.893    89703.135    1.0705317 
  210000     8661     325.4962     346.3382   -30844.139     5601.209            0   -30844.139            0            0    71890.777    6026.2819    -25242.93    89456.113    1.0734878 
  211000     8661    326.51768    386.65177   -30714.644    5618.7869            0   -30714.644            0            0      72081.7    5963.7992   -25095.857    89562.872    1.0722082 
  212000     8661    322.17139   -9.9903254   -30699.201     5543.995            0   -30699.201            0            0    72219.377    5843.7293   -25155.206    90116.342     1.065623 
  213000     8661    327.86982    462.66576   -30705.516    5642.0547            0   -30705.516            0            0    72116.949    5941.6641   -25063.462    88748.115    1.0820517 
  214000     8661    325.46666    162.83417   -30645.492    5600.7008            0   -30645.492            0            0    72247.991     5866.614   -25044.791    89752.122    1.0699474 
  215000     8661     325.2922    84.209646   -30765.015    5597.6986            0   -30765.015            0            0    72035.697    5959.5934   -25167.317      90221.7    1.0643786 
  216000     8661    330.74295     25.65999   -30688.025    5691.4963            0   -30688.025            0            0    72230.848    5839.2548   -24996.528    89722.565    1.0702998 
  217000     8661    327.67261    110.08583   -30628.224    5638.6612            0   -30628.224            0            0    72237.358    5896.6307   -24989.563     90581.92    1.0601459 
  218000     8661    325.70541   -49.317104   -30601.118    5604.8092            0   -30601.118            0            0    72364.719    5796.0012   -24996.309    90132.756     1.065429 
  219000     8661    326.13789    229.14395    -30636.55    5612.2515            0    -30636.55            0            0    72237.911    5883.8295   -25024.299    89868.048    1.0685672 
  220000     8661    328.99195   -192.65259   -30724.141    5661.3646            0   -30724.141            0            0    72243.296    5790.9404   -25062.776    90481.204    1.0613259 
  221000     8661    328.64778    -61.89973   -30762.939    5655.4421            0   -30762.939            0            0    72072.599    5922.9335   -25107.497    91064.221     1.054531 
  222000     8661    330.11383    86.154741   -30694.788    5680.6702            0   -30694.788            0            0    72213.282    5849.4913   -25014.118    89801.936    1.0693539 
  223000     8661    329.31861    124.40975   -30698.185    5666.9858            0   -30698.185            0            0     72180.67    5883.0168   -25031.199    89762.257    1.0698266 
  224000     8661    325.77035    133.28398   -30662.309    5605.9266            0   -30662.309            0            0    72182.882    5918.1774   -25056.383    90038.999    1.0665384 
  225000     8661    332.83816     259.2015   -30740.969     5727.551            0   -30740.969            0            0    72065.185    5953.7575   -25013.418    89801.375    1.0693606 
  226000     8661     329.8191   -238.40333   -30571.556    5675.5985            0   -30571.556            0            0     72480.78       5710.9   -24895.957    90172.644    1.0649577 
  227000     8661    322.36358    -255.7615   -30644.589    5547.3022            0   -30644.589            0            0     72386.48    5727.2835   -25097.287    90128.897    1.0654746 
  228000     8661    331.97734    26.926404   -30770.717    5712.7379            0   -30770.717            0            0    72107.566    5886.6749   -25057.979    90019.702     1.066767 
  229000     8661    323.81077   -2.7877977   -30726.339    5572.2058            0   -30726.339            0            0    72246.357    5790.2201   -25154.133    89078.126     1.078043 
  230000     8661    330.06136   -87.245201    -30606.06    5679.7674            0    -30606.06            0            0    72348.768    5809.1554   -24926.292    90312.993    1.0633027 
  231000     8661    327.89186     486.4577    -30666.84    5642.4341            0    -30666.84            0            0    72066.655    6024.0066   -25024.406    89851.128    1.0687684 
  232000     8661    327.30986    23.740985   -30543.159    5632.4189            0   -30543.159            0            0    72431.981     5789.714    -24910.74    90156.477    1.0651486 
  233000     8661    328.80617   -125.11522   -30561.643    5658.1678            0   -30561.643            0            0    72408.251    5788.3459   -24903.475    90731.913    1.0583933 
  234000     8661    328.10175    350.62352   -30768.897     5646.046            0   -30768.897            0            0    72069.405    5924.0555   -25122.851    88531.319    1.0847014 
  235000     8661    333.63513    344.43683   -30811.154    5741.2656            0   -30811.154            0            0    71981.505    5964.8085   -25069.888    89318.344    1.0751436 
  236000     8661    331.54397    530.70656   -30630.806    5705.2804            0   -30630.806            0            0    72158.866    5973.6892   -24925.526    89632.871    1.0713709 
  237000     8661    331.07542   -4.3975543   -30510.651    5697.2176            0   -30510.651            0            0    72468.795    5781.2798   -24813.434    90462.517    1.0615452 
  238000     8661     332.1656   -814.35487   -30686.232    5715.9776            0   -30686.232            0            0     72481.96     5595.146   -24970.254    91345.846    1.0512799 
  239000     8661    332.71934    4.0598248   -30609.418    5725.5064            0   -30609.418            0            0    72285.558    5858.4775   -24883.912    90425.176    1.0619835 
  240000     8661    326.07148    165.70004   -30727.678    5611.1086            0   -30727.678            0            0    72129.595    5902.3611    -25116.57    89527.711    1.0726293 
  241000     8661     330.3571     48.19366   -30767.593    5684.8565            0   -30767.593            0            0    72106.134    5885.7431   -25082.737     90115.45    1.0656336 
  242000     8661    325.66224   -262.41418   -30602.695    5604.0663            0   -30602.695            0            0    72470.196    5684.4775   -24998.628    89870.242    1.0685411 
  243000     8661    330.61543    299.94683   -30578.491    5689.3019            0   -30578.491            0            0    72221.039    5959.5102   -24889.189    90620.464     1.059695 
  244000     8661    332.35929   -619.69027   -30628.206    5719.3106            0   -30628.206            0            0    72532.114    5599.4247   -24908.895    90868.428    1.0568032 
  245000     8661    319.33777   -371.81673   -30711.613    5495.2334            0   -30711.613            0            0     72353.76    5688.9048    -25216.38     90004.45    1.0669478 
  246000     8661    334.15265    52.136896   -30757.281    5750.1711            0   -30757.281            0            0     72171.06     5833.578    -25007.11    89344.721    1.0748262 
  247000     8661    332.64901    145.29683   -30543.051    5724.2962            0   -30543.051            0            0    72399.911     5816.024   -24818.755    90013.217    1.0668439 
  248000     8661    329.71242   -45.608026   -30796.744    5673.7626            0   -30796.744            0            0    72111.409    5850.8843   -25122.981    89610.964    1.0716328 
  249000     8661    330.06512    475.80015   -30544.171     5679.832            0   -30544.171            0            0    72195.974    6022.8373   -24864.339    90643.092    1.0594304 
  250000     8661    330.18483      178.379   -30622.427     5681.892            0   -30622.427            0            0    72272.598    5866.2105   -24940.535    89962.208    1.0674488 
  251000     8661    326.50955    31.762667   -30602.248     5618.647            0   -30602.248            0            0    72383.469    5775.2979   -24983.601    89538.446    1.0725007 
  252000     8661    324.01782   -350.43953   -30639.783    5575.7688            0   -30639.783            0            0    72391.684    5725.8741   -25064.014    90599.826    1.0599363 
  253000     8661    330.80543    150.23453   -30579.672    5692.5714            0   -30579.672            0            0    72338.108    5843.7969   -24887.101    89663.023    1.0710106 
  254000     8661    326.96445   -251.20617    -30815.77    5626.4751            0    -30815.77            0            0    72144.802    5801.3497   -25189.295     89797.46    1.0694072 
  255000     8661    330.96146     314.9178   -30695.495    5695.2565            0   -30695.495            0            0    72129.942       5937.4   -25000.239    89818.092    1.0691615 
  256000     8661    333.35527    68.086881   -30670.038    5736.4496            0   -30670.038            0            0    72280.968    5809.4012   -24933.589    89205.908    1.0764987 
  257000     8661    330.86458    374.33695   -30690.688    5693.5893            0   -30690.688            0            0    72049.515    6019.8982   -24997.099    90480.284    1.0613367 
  258000     8661    327.23308   -197.58553   -30646.423    5631.0976            0   -30646.423            0            0    72351.832    5761.8882   -25015.326    90321.859    1.0631983 
  259000     8661    329.88386   -141.28128   -30636.506    5676.7129            0   -30636.506            0            0    72359.614    5763.7197   -24959.793    90095.455    1.0658701 
  260000     8661    337.50309    320.12229   -30565.398    5807.8262            0   -30565.398            0            0    72280.514     5908.646   -24757.571    90185.707    1.0648034 
  261000     8661    323.45859   -290.06481   -30561.115    5566.1453            0   -30561.115            0            0    72487.675    5706.7794    -24994.97     90530.29    1.0607505 
  262000     8661    330.58546    83.349223   -30718.673    5688.7861            0   -30718.673            0            0    72190.373    5848.8976   -25029.887    89745.799    1.0700228 
  263000     8661    331.30723    176.34848   -30562.561    5701.2066            0   -30562.561            0            0    72346.949    5850.6958   -24861.354    89790.483    1.0694903 
  264000     8661     324.8413   -350.46035   -30612.921    5589.9394            0   -30612.921            0            0    72521.896    5628.6381   -25022.981    89462.585    1.0734102 
  265000     8661    327.13447   -41.206122   -30666.439    5629.4007            0   -30666.439            0            0    72302.469    5790.3262   -25037.038    89427.289    1.0738338 
  266000     8661    325.40763    8.6838815   -30612.652     5599.685            0   -30612.652            0            0    72332.235    5815.7107   -25012.967    90107.268    1.0657303 
  267000     8661    329.59083    57.728851   -30512.601    5671.6704            0   -30512.601            0            0    72410.337    5837.2214   -24840.931    90645.156    1.0594063 
  268000     8661    326.74858   -127.80173   -30700.995    5622.7602            0   -30700.995            0            0    72228.911    5825.2311   -25078.234    90199.644    1.0646389 
  269000     8661    331.38419   -34.658451   -30684.048    5702.5309            0   -30684.048            0            0    72221.725    5855.8167   -24981.517    90485.789    1.0612722 
  270000     8661    327.64901    320.62409   -30692.087    5638.2551            0   -30692.087            0            0    72128.992    5941.0619   -25053.832    89497.364     1.072993 
  271000     8661    328.17236    37.993597   -30749.786     5647.261            0   -30749.786            0            0    72150.348    5860.7783   -25102.525    89435.515    1.0737351 
  272000     8661    329.69594   -242.57694   -30519.895    5673.4791            0   -30519.895            0            0    72571.299    5669.3306   -24846.416    90068.808    1.0661854 
  273000     8661      327.527    45.808845   -30723.893    5636.1555            0   -30723.893            0            0    72194.643    5844.1019   -25087.738    89818.187    1.0691604 
  274000     8661    328.98272    562.20719   -30826.455    5661.2059            0   -30826.455            0            0    71880.374    6054.8559   -25165.249    88845.501    1.0808656 
  275000     8661    323.02289     90.76819   -30532.359    5558.6479            0   -30532.359            0            0    72370.482     5855.378   -24973.711    90349.419     1.062874 
  276000     8661    329.02677   -57.337304   -30718.808    5661.9639            0   -30718.808            0            0    72226.999    5814.4066   -25056.844    90075.786    1.0661028 
  277000     8661    322.22256   -72.401869   -30649.481    5544.8755            0   -30649.481            0            0    72319.849    5793.2972   -25104.605    89699.619    1.0705736 
  278000     8661    326.42024   -130.91452   -30525.993    5617.1102            0   -30525.993            0            0     72478.48     5747.818   -24908.883    90290.117    1.0635721 
  279000     8661    329.87663    393.96896   -30749.046    5676.5885            0   -30749.046            0            0    71991.385    6019.1502   -25072.457    89984.976    1.0671787 
  280000     8661    328.09733   -202.30652   -30605.163    5645.9699            0   -30605.163            0            0    72425.556    5729.3071   -24959.193    90335.232    1.0630409 
  281000     8661    324.70846    25.208499   -30648.494    5587.6534            0   -30648.494            0            0    72297.486    5814.5266   -25060.841    89910.995    1.0680568 
  282000     8661    333.71603    92.837095   -30588.796    5742.6576            0   -30588.796            0            0     72328.01    5842.7887   -24846.139    90146.999    1.0652606 
  283000     8661    322.03093   -435.12453   -30695.984    5541.5779            0   -30695.984            0            0    72381.938    5681.8218   -25154.407    90170.782    1.0649797 
  284000     8661    323.15751   -269.36932   -30793.182    5560.9644            0   -30793.182            0            0    72224.038    5745.8019   -25232.217    89526.061    1.0726491 
  285000     8661    327.57951    163.18854   -30622.755    5637.0592            0   -30622.755            0            0    72239.795    5899.0853   -24985.696    90210.249    1.0645137 
  286000     8661    327.99511    66.178978    -30655.58    5644.2108            0    -30655.58            0            0    72252.836      5857.25   -25011.369    89803.723    1.0693326 
  287000     8661    332.23911   -294.68778   -30798.001    5717.2424            0   -30798.001            0            0    72207.801    5754.9397   -25080.758    90260.352    1.0639228 
  288000     8661    331.47531    228.43644   -30731.656    5704.0989            0   -30731.656            0            0    72161.779    5868.8789   -25027.557     89270.76    1.0757167 
  289000     8661    330.05417    527.48471   -30559.262    5679.6436            0   -30559.262            0            0     72234.29    5965.0967   -24879.618    89981.954    1.0672145 
  290000     8661    324.05574    452.44096   -30472.372    5576.4212            0   -30472.372            0            0    72383.228    5903.0867   -24895.951    89434.813    1.0737435 
  291000     8661    324.36829   -442.25091   -30519.033    5581.7997            0   -30519.033            0            0    72602.239    5640.0324   -24937.234    90642.777    1.0594341 
  292000     8661    330.26982   -131.13807   -30467.081    5683.3545            0   -30467.081            0            0    72565.481    5726.6581   -24783.727    90704.947    1.0587079 
  293000     8661    329.09766   -196.16615   -30707.523    5663.1838            0   -30707.523            0            0    72296.324    5753.3183   -25044.339    89742.228    1.0700653 
  294000     8661     326.5144   -766.29571   -30601.904    5618.7304            0   -30601.904            0            0    72626.565     5530.335   -24983.174     90937.86    1.0559963 
  295000     8661    329.62914   -6.9522299   -30565.448    5672.3295            0   -30565.448            0            0    72423.871    5768.7703   -24893.119    89875.237    1.0684817 
  296000     8661    328.12619    451.51594   -30558.298    5646.4664            0   -30558.298            0            0    72242.237    5958.7292   -24911.831     89921.53    1.0679317 
  297000     8661    328.60513   -105.46648   -30505.538    5654.7082            0   -30505.538            0            0    72455.739    5795.5327    -24850.83    90811.275    1.0574683 
  298000     8661    322.96806    137.83796   -30766.025    5557.7042            0   -30766.025            0            0    72091.165    5899.2421   -25208.321    89181.963    1.0767878 
  299000     8661    332.41738    296.60896   -30609.263    5720.3102            0   -30609.263            0            0      72224.4    5923.8312   -24888.952    89794.904    1.0694376 
  300000     8661    327.04178    214.05489   -30385.377    5627.8057            0   -30385.377            0            0     72576.87    5796.1732   -24757.572    90072.074    1.0661467 
  301000     8661    325.60274    232.67163   -30648.227    5603.0423            0   -30648.227            0            0    72260.775    5850.5929   -25045.185    88953.084    1.0795584 
  302000     8661    329.89287   -49.178646   -30682.691    5676.8679            0   -30682.691            0            0    72268.915    5807.0224   -25005.823    90074.859    1.0661138 
  303000     8661    326.82431   -122.29596   -30757.157    5624.0634            0   -30757.157            0            0    72164.323    5837.1314   -25133.093    90511.464    1.0609711 
  304000     8661    327.57621    124.70452   -30647.486    5637.0023            0   -30647.486            0            0    72254.323    5854.7396   -25010.484    89827.216    1.0690529 
  305000     8661    328.36871   -312.28748   -30575.353    5650.6399            0   -30575.353            0            0    72520.407    5670.8914   -24924.714    90235.974    1.0642103 
  306000     8661    330.72393      100.009   -30502.162     5691.169            0   -30502.162            0            0    72481.847    5777.0699   -24810.993    89699.984    1.0705693 
  307000     8661    328.37676    54.693989   -30634.929    5650.7784            0   -30634.929            0            0    72300.636    5829.5019   -24984.151    89815.675    1.0691903 
  308000     8661    325.47014    107.54233   -30631.902    5600.7606            0   -30631.902            0            0    72312.098    5815.9234   -25031.141    89359.426    1.0746493 
  309000     8661     332.9375    337.77485   -30647.154    5729.2605            0   -30647.154            0            0    72195.235    5913.3805   -24917.893    89379.465    1.0744084 
  310000     8661    326.52571    297.60544   -30676.342    5618.9252            0   -30676.342            0            0    72112.789    5971.3345   -25057.417    90766.654    1.0579882 
  311000     8661    327.49648    33.663409   -30596.639    5635.6303            0   -30596.639            0            0    72333.952    5831.6977   -24961.008    90225.992     1.064328 
  312000     8661    333.45358    123.72012    -30654.26    5738.1414            0    -30654.26            0            0    72205.618    5896.5751   -24916.118    90641.734    1.0594463 
  313000     8661    327.76579   -188.85907   -30678.584    5640.2647            0   -30678.584            0            0    72296.821     5784.138   -25038.319    91081.289    1.0543334 
  314000     8661    321.53998   -320.60525    -30642.67    5533.1296            0    -30642.67            0            0    72377.338     5737.861    -25109.54    90176.762     1.064909 
  315000     8661    330.61457   -79.213809   -30519.239    5689.2871            0   -30519.239            0            0    72518.118    5722.3723   -24829.952    89898.497    1.0682053 
  316000     8661     327.1208    108.31819   -30731.495    5629.1656            0   -30731.495            0            0    72195.463    5827.9921    -25102.33    89128.885     1.077429 
  317000     8661     322.6618   -109.45493   -30581.924    5552.4342            0   -30581.924            0            0    72411.631    5765.3095    -25029.49    89626.852    1.0714428 
  318000     8661    324.16943   -316.84275   -30760.357    5578.3777            0   -30760.357            0            0    72340.324    5664.0018    -25181.98    89022.944    1.0787112 
  319000     8661    327.74864    -380.8611   -30499.488    5639.9695            0   -30499.488            0            0     72603.21     5656.455   -24859.518    90879.878    1.0566701 
  320000     8661    332.70615   -190.96544   -30513.573    5725.2794            0   -30513.573            0            0     72633.02    5612.6297   -24788.294    89209.137    1.0764598 
  321000     8661    324.91634     510.1446   -30617.571    5591.2307            0   -30617.571            0            0    72178.076    5961.0567   -25026.341    89077.952    1.0780451 
  322000     8661    328.22685   -170.44847   -30821.101    5648.1988            0   -30821.101            0            0    72111.085    5826.1382   -25172.903      89723.6    1.0702875 
  323000     8661    326.17045    158.38686   -30973.792    5612.8118            0   -30973.792            0            0    71804.895    5981.8059    -25360.98    89372.266    1.0744949 
  324000     8661    331.11466    206.06347   -30750.148    5697.8927            0   -30750.148            0            0     72099.77    5910.4035   -25052.255    89742.942    1.0700568 
  325000     8661     323.4967    57.300381    -30543.59    5566.8012            0    -30543.59            0            0    72397.068    5816.2466   -24976.789    90287.561    1.0636022 
  326000     8661    329.58458   -117.95859   -30850.091    5671.5628            0   -30850.091            0            0    72066.777    5846.8309   -25178.528    89755.756    1.0699041 
  327000     8661    319.43149   -136.58648   -30725.529    5496.8462            0   -30725.529            0            0    72212.625    5823.3382   -25228.683    90095.677    1.0658674 
  328000     8661     329.4118   -23.889821   -30602.053    5668.5896            0   -30602.053            0            0    72388.905    5770.4171   -24933.463    89532.719    1.0725693 
  329000     8661     321.9589   -128.82675   -30631.239    5540.3385            0   -30631.239            0            0    72376.276    5751.0544   -25090.901    90119.504    1.0655856 
  330000     8661    328.80559     -357.019    -30669.31    5658.1577            0    -30669.31            0            0    72385.663     5700.865   -25011.152    90289.337    1.0635813 
  331000     8661    325.39355    40.043862   -30642.148    5599.4426            0   -30642.148            0            0    72337.342    5780.9319   -25042.705    89176.289    1.0768563 
  332000     8661    332.71419    292.25091   -30645.332    5725.4177            0   -30645.332            0            0    72205.958    5908.5224   -24919.914    89683.879    1.0707615 
  333000     8661    330.52833   -140.09471   -30480.159     5687.803            0   -30480.159            0            0    72610.996    5668.8342   -24792.357     90185.51    1.0648057 
  334000     8661    323.05662    16.397645   -30618.633    5559.2283            0   -30618.633            0            0    72322.574    5818.6245   -25059.405    89791.751    1.0694752 
  335000     8661    329.83143   -29.281149   -30881.573    5675.8107            0   -30881.573            0            0    72044.688    5839.3772   -25205.762    89415.036     1.073981 
  336000     8661    323.91218      105.421    -30708.84    5573.9508            0    -30708.84            0            0    72120.723    5927.0962   -25134.889    90232.192    1.0642548 
  337000     8661    330.34094     258.0065   -30556.645    5684.5784            0   -30556.645            0            0    72333.586    5872.3831   -24872.067    89897.502    1.0682171 
  338000     8661    320.08425    82.057251   -30739.274     5508.079            0   -30739.274            0            0    72165.986    5859.3024   -25231.195    89279.201     1.075615 
  339000     8661    331.72629   -245.07649   -30826.104    5708.4178            0   -30826.104            0            0    72139.628    5790.3117   -25117.686    89861.151    1.0686492 
  340000     8661    330.54052   -404.62171   -30500.058    5688.0127            0   -30500.058            0            0    72543.186     5712.835   -24812.045    91156.438    1.0534642 
  341000     8661    329.94339    61.382512   -30671.972    5677.7373            0   -30671.972            0            0    72284.207    5804.4051   -24994.235    88940.849    1.0797069 
  342000     8661    327.32381    252.27601    -30731.42    5632.6589            0    -30731.42            0            0    72144.696    5884.4625   -25098.761     88605.02    1.0837992 
  343000     8661    320.36958   -652.14327   -30656.952     5512.989            0   -30656.952            0            0    72478.367     5619.025   -25143.963    90279.748    1.0636942 
  344000     8661    330.12026   -31.891156   -30839.626    5680.7809            0   -30839.626            0            0    72037.884    5883.7285   -25158.845    89643.376    1.0712453 
  345000     8661    326.83858   -600.26983    -30676.34     5624.309            0    -30676.34            0            0    72416.211    5665.8826   -25052.031    91008.191    1.0551803 
  346000     8661     325.0142   -325.17858   -30631.422    5592.9146            0   -30631.422            0            0    72372.243    5756.8641   -25038.507    90943.087    1.0559357 
  347000     8661    329.32017   -73.728994   -30746.066    5667.0128            0   -30746.066            0            0    72202.749    5815.1795   -25079.054    89867.761    1.0685706 
  348000     8661    328.12588    447.34089   -30572.285    5646.4611            0   -30572.285            0            0     72247.41    5938.9585   -24925.824    89313.529    1.0752016 
  349000     8661    329.72236    26.280905   -30665.625    5673.9336            0   -30665.625            0            0    72252.465    5838.1108   -24991.692    89690.957     1.070677 
  350000     8661    325.78991    197.54359   -30644.139    5606.2633            0   -30644.139            0            0    72227.858    5888.5109   -25037.876    89381.503    1.0743839 
  351000     8661    328.65448    98.504556   -30456.215    5655.5574            0   -30456.215            0            0    72516.151    5784.6127   -24800.658    89749.686    1.0699764 
  352000     8661    335.43261   -341.19684   -30723.002     5772.197            0   -30723.002            0            0    72306.612    5731.9376   -24950.805    90409.759    1.0621646 
  353000     8661     319.3403    88.113846   -30647.141     5495.277            0   -30647.141            0            0    72244.505    5866.8856   -25151.864    89693.111    1.0706513 
  354000     8661    324.07134   -206.34811   -30643.483    5576.6897            0   -30643.483            0            0    72410.916    5702.7162   -25066.794    89232.071    1.0761831 
  355000     8661    321.01232   -523.31231   -30726.334    5524.0495            0   -30726.334            0            0    72379.695    5655.1879   -25202.284    89742.939    1.0700569 
  356000     8661    329.29892   -135.47546   -30577.755     5666.647            0   -30577.755            0            0    72424.714    5760.0237   -24911.108    90247.915    1.0640694 
  357000     8661    331.87669   -147.50833   -30525.926    5711.0059            0   -30525.926            0            0    72494.083    5741.1523    -24814.92    90660.167    1.0592309 
  358000     8661    332.79288    -336.6343   -30808.843    5726.7718            0   -30808.843            0            0    72165.704    5780.4237   -25082.071    90549.793     1.060522 
  359000     8661    333.37725    393.99904   -30764.271    5736.8279            0   -30764.271            0            0    72029.789    5969.7567   -25027.443    89270.204    1.0757234 
  360000     8661    327.92091    3.5559492    -30544.01     5642.934            0    -30544.01            0            0    72427.013    5789.6186   -24901.076    90232.115    1.0642558 
  361000     8661    325.99282   -9.5198532    -30618.47    5609.7549            0    -30618.47            0            0    72321.089    5816.2205   -25008.715    89965.099    1.0674145 
  362000     8661    332.43456    273.08538   -30553.308    5720.6059            0   -30553.308            0            0    72310.887    5895.3181   -24832.702    90332.858    1.0630689 
  363000     8661    333.60964   -196.74333   -30607.162     5740.827            0   -30607.162            0            0    72457.759     5700.095   -24866.335    89899.306    1.0681957 
  364000     8661    323.55903   -129.28416   -30817.238    5567.8737            0   -30817.238            0            0    72170.537    5772.9926   -25249.365    88959.988    1.0794746 
  365000     8661    328.63101   -70.994467   -30619.043    5655.1535            0   -30619.043            0            0    72347.336    5793.8688   -24963.889    89990.468    1.0671136 
  366000     8661    328.41294    308.00439   -30789.719    5651.4009            0   -30789.719            0            0    71985.202    5986.8584   -25138.318    89580.286    1.0719998 
  367000     8661    328.25737    214.85035   -30601.573    5648.7239            0   -30601.573            0            0     72282.55     5875.387   -24952.849    89805.536     1.069311 
  368000     8661    329.42748    273.23953   -30692.323    5668.8594            0   -30692.323            0            0    72092.057    5970.8357   -25023.463    89906.348     1.068112 
  369000     8661    329.26546   -284.27399   -30740.804    5666.0714            0   -30740.804            0            0    72229.304    5789.2575   -25074.732    90690.841    1.0588726 
  370000     8661    329.94883    197.35706   -30777.647    5677.8309            0   -30777.647            0            0    72047.281    5935.4033   -25099.817    89722.764    1.0702975 
  371000     8661    328.35112    351.10879   -30615.234    5650.3371            0   -30615.234            0            0    72191.436    5956.9763   -24964.897    89776.952    1.0696515 
  372000     8661     331.6827   -73.688529   -30687.295    5707.6676            0   -30687.295            0            0    72274.172    5796.6977   -24979.627    89992.902    1.0670847 
  373000     8661    322.42619   -305.03112   -30677.625    5548.3797            0   -30677.625            0            0    72361.861     5723.772   -25129.245     90123.13    1.0655428 
  374000     8661    326.72064    420.84035   -30703.148    5622.2796            0   -30703.148            0            0    72074.358    5980.0538   -25080.869    89549.637    1.0723667 
  375000     8661    332.62267     54.70256   -30703.852    5723.8429            0   -30703.852            0            0    72218.422    5838.3474   -24980.009    89862.905    1.0686284 
  376000     8661    331.05643    388.55603   -30691.718    5696.8906            0   -30691.718            0            0    72109.217    5955.1963   -24994.828    89613.961     1.071597 
  377000     8661    334.20551    7.7372651   -30713.248    5751.0807            0   -30713.248            0            0    72206.933    5839.7547   -24962.167    89831.384    1.0690033 
  378000     8661    330.86069    377.36458   -30701.241    5693.5224            0   -30701.241            0            0    72034.592    6023.2071   -25007.719    90030.557    1.0666384 
  379000     8661    328.30733   -115.59513     -30833.9    5649.5836            0     -30833.9            0            0     72131.74    5796.5822   -25184.316    89340.612    1.0748756 
  380000     8661    324.04804   -39.380372   -30695.197    5576.2888            0   -30695.197            0            0    72246.067    5818.5763   -25118.908    90007.231    1.0669148 
  381000     8661    321.90775    102.37187   -30755.317    5539.4582            0   -30755.317            0            0    72125.843    5880.5441   -25215.859    89426.701    1.0738409 
  382000     8661    330.84021    119.93345   -30805.652    5693.1699            0   -30805.652            0            0    72044.049    5914.0994   -25112.482    89722.077    1.0703057 
  383000     8661    325.79194    154.73511   -30696.456    5606.2983            0   -30696.456            0            0     72193.81    5866.5325   -25090.158    89380.819    1.0743921 
  384000     8661    329.21689   -437.12574   -30714.391    5665.2354            0   -30714.391            0            0    72391.981    5652.9943   -25049.155     89620.91    1.0715139 
  385000     8661    324.31219    142.99423   -30684.157    5580.8343            0   -30684.157            0            0    72144.749    5926.9346   -25103.322    89815.472    1.0691927 
  386000     8661    330.89285    74.317602   -30788.713    5694.0757            0   -30788.713            0            0    72080.427    5889.3763   -25094.637    89642.366    1.0712574 
  387000     8661    326.12429    118.99651   -30685.254    5612.0173            0   -30685.254            0            0    72198.353    5876.8864   -25073.237    89561.382    1.0722261 
  388000     8661    326.68678    34.198024   -30737.775    5621.6968            0   -30737.775            0            0     72126.69     5891.573   -25116.078    90217.494    1.0644282 
  389000     8661    334.67078    -167.5588   -30564.553    5759.0872            0   -30564.553            0            0    72424.833    5769.6477   -24805.466    90670.142    1.0591144 
  390000     8661    329.22848    205.38401   -30601.172    5665.4349            0   -30601.172            0            0    72279.386    5878.7386   -24935.737    90205.624    1.0645683 
  391000     8661    330.69387   -170.70118   -30719.714    5690.6516            0   -30719.714            0            0    72300.552     5742.582   -25029.063    89660.144     1.071045 
  392000     8661    326.77353    215.51052   -30619.216    5623.1896            0   -30619.216            0            0    72272.133    5869.5838   -24996.026    89668.969    1.0709396 
  393000     8661     328.9961   -76.629351    -30750.41    5661.4361            0    -30750.41            0            0     72182.87    5824.0619   -25088.974    89661.774    1.0710255 
  394000     8661    322.75316   0.33218608   -30802.835    5554.0063            0   -30802.835            0            0    72063.124    5892.2548   -25248.829    89926.421    1.0678736 
  395000     8661    325.93202    34.534816   -30694.104    5608.7087            0   -30694.104            0            0    72252.102    5814.0186   -25085.395    89212.487    1.0764194 
  396000     8661    325.93984   -92.769168   -30628.044    5608.8434            0   -30628.044            0            0    72375.896    5757.9031   -25019.201    90102.152    1.0657908 
  397000     8661    328.18491    164.52251   -30561.527     5647.477            0   -30561.527            0            0    72356.945    5846.4827    -24914.05    90283.586     1.063649 
  398000     8661    333.40072   -118.11638   -30686.512    5737.2317            0   -30686.512            0            0    72334.094    5743.5263   -24949.281    89719.041    1.0703419 
  399000     8661    324.25859   -59.559595   -30482.764     5579.912            0   -30482.764            0            0    72526.304    5747.5146   -24902.852    90256.865    1.0639639 
  400000     8661    329.96768   -0.3760076   -30526.265    5678.1552            0   -30526.265            0            0    72473.343    5764.3088    -24848.11    89798.485     1.069395 
  401000     8661    328.73389   -172.28447   -30503.882    5656.9239            0   -30503.882            0            0    72595.353    5662.4424   -24846.958     89792.96    1.0694608 
  402000     8661    322.25133    560.91973   -30618.546    5545.3706            0   -30618.546            0            0    72187.251    5956.5264   -25073.176    88914.474    1.0800272 
  403000     8661    327.98601    7.2304586   -30708.341    5644.0543            0   -30708.341            0            0    72270.285    5783.2135   -25064.286    88885.208    1.0803828 
  404000     8661    326.25338    346.26234   -30787.517    5614.2388            0   -30787.517            0            0    72058.365    5910.6518   -25173.278    88624.838    1.0835568 
  405000     8661    326.66219    210.87656   -30554.075    5621.2736            0   -30554.075            0            0    72367.919    5839.0669   -24932.801    89547.643    1.0723906 
  406000     8661    335.97612    75.364649   -30555.964    5781.5498            0   -30555.964            0            0    72451.127     5751.639   -24774.414    89387.249    1.0743148 
  407000     8661    328.38901    164.89606   -30702.496    5650.9891            0   -30702.496            0            0    72171.917    5885.9256   -25051.506    89460.853    1.0734309 
  408000     8661    338.27888    68.430804    -30761.76    5821.1761            0    -30761.76            0            0    72148.117    5853.1097   -24940.584    89837.785    1.0689272 
  409000     8661    326.42141    150.76748   -30710.466    5617.1303            0   -30710.466            0            0    72075.372    5971.8212   -25093.335    90706.492    1.0586899 
  410000     8661    333.77815    26.815277   -30715.269    5743.7266            0   -30715.269            0            0    72156.924    5891.8531   -24971.542    90254.916    1.0639869 
  411000     8661    333.09886    46.948678   -30585.368    5732.0373            0   -30585.368            0            0    72334.643    5839.4294   -24853.331    90494.504      1.06117 
  412000     8661    331.21284   -41.663022   -30414.241    5699.5823            0   -30414.241            0            0    72609.764    5732.8859   -24714.659    90661.147    1.0592194 
  413000     8661    329.67695    210.27463   -30682.086    5673.1524            0   -30682.086            0            0    72224.943    5854.6349   -25008.934    89216.951    1.0763655 
  414000     8661    329.64289   -125.75763   -30737.216    5672.5662            0   -30737.216            0            0    72201.675    5820.0109    -25064.65    90516.148    1.0609162 
  415000     8661    328.53243    62.657351   -30767.862    5653.4572            0   -30767.862            0            0    72134.781    5852.7032   -25114.405      89526.5    1.0726438 
  416000     8661    327.53561    57.343698   -30840.197    5636.3037            0   -30840.197            0            0    72019.631    5901.0516   -25203.893    89518.065    1.0727449 
  417000     8661     330.8431    449.74908   -30676.684    5693.2196            0   -30676.684            0            0    72120.633    5967.5339   -24983.464    89808.223     1.069279 
  418000     8661    320.70344    111.61753    -30757.94    5518.7343            0    -30757.94            0            0    72085.911    5920.0983   -25239.206    89838.153    1.0689228 
  419000     8661    329.24045   -112.39877   -30682.408     5665.641            0   -30682.408            0            0    72243.413     5834.168   -25016.767    90727.434    1.0584455 
  420000     8661    326.33265   -132.87109   -30527.006    5615.6029            0   -30527.006            0            0    72509.761    5724.8854   -24911.403    89983.964    1.0671907 
  421000     8661    324.80755    381.63689   -30724.584    5589.3586            0   -30724.584            0            0    72099.098    5937.2291   -25135.225    88968.202    1.0793749 
  422000     8661    328.33071    149.64484   -30758.907     5649.986            0   -30758.907            0            0    72125.089    5878.5003   -25108.921    89491.547    1.0730628 
  423000     8661    332.56817    554.79897   -30856.287    5722.9051            0   -30856.287            0            0    71821.051    6078.4875   -25133.382    89076.081    1.0780677 
  424000     8661    325.89908   -190.65963   -30756.138    5608.1419            0   -30756.138            0            0    72256.508    5746.3299   -25147.996    89007.522    1.0788981 
  425000     8661    326.01047    158.68864   -30654.062    5610.0587            0   -30654.062            0            0    72205.201    5897.1593   -25044.003    89749.195    1.0699823 
  426000     8661    325.40711   -196.01861   -30650.529     5599.676            0   -30650.529            0            0    72388.711    5719.0542   -25050.853    89469.498    1.0733272 
  427000     8661    327.97275   -136.46792    -30853.78     5643.826            0    -30853.78            0            0    72029.955    5878.7318   -25209.954    90251.281    1.0640298 
  428000     8661    326.25126     199.2999    -30558.79    5614.2023            0    -30558.79            0            0    72343.255    5860.6545   -24944.588    90068.401    1.0661902 
  429000     8661    332.69365    2.0051147    -30692.58    5725.0643            0    -30692.58            0            0    72212.868    5854.5344   -24967.516    89700.974    1.0705575 
  430000     8661    330.56829   -281.34786   -30574.988    5688.4906            0   -30574.988            0            0    72471.697    5711.7172   -24886.498    90573.066    1.0602495 
  431000     8661    331.24136    169.32224   -30705.664    5700.0729            0   -30705.664            0            0    72183.019    5871.0564   -25005.591    89304.227    1.0753136 
  432000     8661    325.88461   -28.494279   -30573.897    5607.8929            0   -30573.897            0            0     72388.37    5797.5414   -24966.004    90046.545     1.066449 
  433000     8661    329.40374    393.15472   -30438.503    5668.4508            0   -30438.503            0            0    72426.741    5894.5917   -24770.052    89764.477    1.0698001 
  434000     8661    331.77162   -109.70907   -30646.645    5709.1978            0   -30646.645            0            0    72313.041    5796.5156   -24937.448    90628.922    1.0595961 
  435000     8661    324.84599     223.1713   -30729.175      5590.02            0   -30729.175            0            0    72158.274    5877.4341   -25139.154    89149.212    1.0771834 
  436000     8661    328.43273    27.417857   -30674.072    5651.7414            0   -30674.072            0            0    72242.702    5845.5143    -25022.33    90062.223    1.0662634 
  437000     8661     331.5554   -81.449704   -30557.537    5705.4771            0   -30557.537            0            0    72458.314    5744.9739    -24852.06    90052.132    1.0663828 
  438000     8661    330.38542    45.011178   -30724.473    5685.3438            0   -30724.473            0            0     72159.47    5875.5967    -25039.13    89828.511    1.0690375 
  439000     8661    326.88919   -80.023639   -30645.432      5625.18            0   -30645.432            0            0    72316.573    5803.5487   -25020.252    90025.177    1.0667021 
  440000     8661      329.151    339.49885   -30573.624    5664.1017            0   -30573.624            0            0    72257.119    5929.6191   -24909.523    89825.658    1.0690715 
  441000     8661     330.5238    390.81382   -30711.439    5687.7251            0   -30711.439            0            0    72096.381    5954.4996   -25023.714    89161.143    1.0770392 
  442000     8661    327.58318   -96.127427   -30814.241    5637.1223            0   -30814.241            0            0    72133.286    5811.2445   -25177.119    89357.563    1.0746718 
  443000     8661    326.22122    233.72746   -30672.939    5613.6853            0   -30672.939            0            0    72222.546    5866.4597   -25059.254    89195.244    1.0766274 
  444000     8661    324.25811   -19.791852   -30713.392    5579.9038            0   -30713.392            0            0    72188.295    5858.1243   -25133.488    89856.377     1.068706 
  445000     8661    328.72875   -360.79958   -30507.374    5656.8355            0   -30507.374            0            0    72616.015     5634.328   -24850.538    90277.755    1.0637177 
  446000     8661    327.73036   -98.137763   -30577.903    5639.6549            0   -30577.903            0            0    72383.181     5799.129   -24938.248    90197.203    1.0646677 
  447000     8661    328.95513    81.095491   -30705.072    5660.7311            0   -30705.072            0            0    72220.562    5836.7457   -25044.341    89438.221    1.0737026 
  448000     8661    326.12186   -236.36653   -30650.207    5611.9756            0   -30650.207            0            0    72400.406    5712.7644   -25038.232    89779.327    1.0696232 
  449000     8661    322.52206    188.34083   -30687.847    5550.0293            0   -30687.847            0            0    72135.024    5931.0663   -25137.818    90014.195    1.0668323 
  450000     8661    324.80247    181.81009   -30635.774    5589.2712            0   -30635.774            0            0    72255.895    5870.8821   -25046.503     89713.67     1.070406 
  451000     8661    321.95611   -141.60069   -30574.424    5540.2904            0   -30574.424            0            0    72440.038    5748.5186   -25034.133    90683.109    1.0589629 
  452000     8661    329.93568   -269.18317   -30642.019    5677.6046            0   -30642.019            0            0    72400.868    5716.8299   -24964.415    90226.026    1.0643276 
  453000     8661    322.50861    134.55598   -30779.382     5549.798            0   -30779.382            0            0    72046.745    5937.7508   -25229.584    89931.775      1.06781 
  454000     8661    326.32649    449.73313   -30602.387    5615.4968            0   -30602.387            0            0    72241.285    5918.5676    -24986.89    89245.347     1.076023 
  455000     8661    328.15505   -499.47047   -30709.994    5646.9632            0   -30709.994            0            0    72458.899    5592.9536   -25063.031    89267.734    1.0757532 
  456000     8661    327.33246    -141.0982    -30725.47    5632.8077            0    -30725.47            0            0    72251.811    5782.2744   -25092.663    89204.382    1.0765172 
  457000     8661    331.07933   -240.90129   -30680.415    5697.2848            0   -30680.415            0            0    72360.496    5714.5976    -24983.13    90000.209    1.0669981 
  458000     8661    331.81152    -66.14869   -30749.084    5709.8845            0   -30749.084            0            0    72181.244    5836.2478   -25039.199    89569.844    1.0721248 
  459000     8661    340.61384   -119.34341   -30836.863    5861.3567            0   -30836.863            0            0    72057.357     5867.246   -24975.506    90250.495     1.064039 
  460000     8661    325.99429   -97.813618   -30670.217    5609.7803            0   -30670.217            0            0    72316.636    5767.9854   -25060.437    89593.864    1.0718373 
  461000     8661    331.32844    416.83779   -30496.366    5701.5716            0   -30496.366            0            0    72345.593    5920.1755   -24794.794    89934.198    1.0677812 
  462000     8661    325.56725   -4.2219466   -30628.939    5602.4318            0   -30628.939            0            0    72340.056    5789.0309   -25026.508     89451.06    1.0735485 
  463000     8661    324.89018   -124.23261   -30511.159    5590.7805            0   -30511.159            0            0    72524.669    5724.7339   -24920.379    90205.148    1.0645739 
  464000     8661    326.92837   -271.34803   -30570.908    5625.8542            0   -30570.908            0            0    72522.475    5665.2898   -24945.054    89654.527    1.0711121 
  465000     8661     327.6912   -44.032849   -30603.611    5638.9811            0   -30603.611            0            0    72385.636    5774.4735    -24964.63    89986.594    1.0671595 
  466000     8661    331.59367   -103.35076   -30360.299    5706.1356            0   -30360.299            0            0    72750.086    5645.9439   -24654.164     90045.15    1.0664655 
  467000     8661    334.04757    249.77859   -30482.231    5748.3628            0   -30482.231            0            0    72444.371    5831.6222   -24733.868    89723.407    1.0702898 
  468000     8661    319.34872    239.71947   -30754.444    5495.4219            0   -30754.444            0            0    72046.623    5957.9081   -25259.022     89324.43    1.0750704 
  469000     8661    328.69819    545.04585   -30769.991    5656.3095            0   -30769.991            0            0    71954.026    6035.1687   -25113.681    89133.595    1.0773721 
  470000     8661    325.94288    88.693362   -30673.877    5608.8956            0   -30673.877            0            0    72178.375    5914.0843   -25064.981    90280.592    1.0636843 
  471000     8661    320.90322   -102.02087   -30451.723    5522.1721            0   -30451.723            0            0     72606.46    5699.7969   -24929.551    90162.887    1.0650729 
  472000     8661    328.90594    400.58097   -30619.406    5659.8847            0   -30619.406            0            0    72231.252    5909.9134   -24959.522    89155.391    1.0771087 
  473000     8661     323.3532   -127.63022   -30708.573    5564.3319            0   -30708.573            0            0    72263.736    5788.3426   -25144.241    89867.112    1.0685783 
  474000     8661    325.80921    411.93562   -30629.027    5606.5954            0   -30629.027            0            0    72185.336    5949.6746   -25022.432    89665.416     1.070982 
  475000     8661    321.80059    81.563546   -30701.906    5537.6142            0   -30701.906            0            0    72182.816    5877.3189   -25164.292    89827.241    1.0690526 
  476000     8661    323.82279   -198.78053   -30750.324    5572.4127            0   -30750.324            0            0    72245.159    5766.7581   -25177.912    89873.568    1.0685016 
  477000     8661    322.56508    -6.353614   -30771.146    5550.7697            0   -30771.146            0            0    72122.314    5868.2157   -25220.377    89957.573    1.0675038 
  478000     8661    326.92176   -79.403533   -30701.566    5625.7404            0   -30701.566            0            0    72299.333    5761.0742   -25075.826    89551.746    1.0723414 
  479000     8661    325.92797   -67.237065   -30583.118     5608.639            0   -30583.118            0            0    72397.557    5783.9274   -24974.479    90185.529    1.0648055 
  480000     8661    330.20981   -176.07921   -30612.781     5682.322            0   -30612.781            0            0    72394.314    5754.7499   -24930.459    90375.224    1.0625705 
  481000     8661    331.52608   -162.23702   -30592.018    5704.9725            0   -30592.018            0            0    72415.924    5751.6261   -24887.046    90325.164    1.0631594 
  482000     8661    329.30686    12.655776   -30689.825    5666.7837            0   -30689.825            0            0    72224.661    5849.2009   -25023.041    89853.147    1.0687444 
  483000     8661    322.17097   -48.809777   -30667.554    5543.9877            0   -30667.554            0            0    72283.848    5808.9379   -25123.566    89668.955    1.0709398 
  484000     8661    326.02829     115.1351   -30627.142    5610.3654            0   -30627.142            0            0    72258.752    5870.9294   -25016.777    90066.166    1.0662167 
  485000     8661    326.76234    5.8422701   -30620.344    5622.9971            0   -30620.344            0            0    72313.119    5825.0508   -24997.347    90336.224    1.0630292 
  486000     8661    325.77134   -177.38467   -30608.421    5605.9438            0   -30608.421            0            0    72381.728    5768.7672   -25002.477     90392.62     1.062366 
  487000     8661     334.3044    129.88123    -30674.27    5752.7824            0    -30674.27            0            0    72231.297    5848.1131   -24921.488    89778.968    1.0696275 
  488000     8661    329.00142    88.121101   -30674.858    5661.5277            0   -30674.858            0            0    72218.653    5869.7264    -25013.33    89891.136    1.0682927 
  489000     8661    331.72552   -238.03794   -30748.041    5708.4046            0   -30748.041            0            0    72249.154    5762.9878   -25039.636     89906.53    1.0681098 
  490000     8661    329.53726     199.4775   -30648.028    5670.7485            0   -30648.028            0            0    72206.724    5905.0719    -24977.28    90027.379     1.066676 
  491000     8661    331.38724    177.19632   -30733.742    5702.5833            0   -30733.742            0            0    72211.822    5815.4418   -25031.158    88647.813     1.083276 
  492000     8661    326.63236   -3.2036927   -30617.671    5620.7603            0   -30617.671            0            0    72362.047    5781.0724   -24996.911    89613.812    1.0715987 
  493000     8661    326.43399   -130.83566   -30762.078    5617.3468            0   -30762.078            0            0    72221.396    5776.1466   -25144.731    89288.041    1.0755085 
  494000     8661    329.30294    45.562655   -30528.219    5666.7163            0   -30528.219            0            0    72432.349    5799.8491   -24861.503     90106.71    1.0657369 
  495000     8661    331.52642   -109.05071   -30629.632    5704.9785            0   -30629.632            0            0    72365.642    5762.4644   -24924.653    89714.419     1.070397 
  496000     8661    332.37716    95.559621   -30513.909    5719.6181            0   -30513.909            0            0    72459.074    5787.3439   -24794.291    89752.777    1.0699396 
  497000     8661    329.85717    330.24572   -30739.542    5676.2536            0   -30739.542            0            0    72103.736    5918.6033   -25063.288    89001.783    1.0789677 
  498000     8661    320.99499    49.747028   -30664.127    5523.7513            0   -30664.127            0            0    72280.572    5811.2151   -25140.375    89546.359     1.072406 
  499000     8661    322.52017    250.26108   -30681.632     5549.997            0   -30681.632            0            0    72154.152    5924.0845   -25131.635    89817.141    1.0691728 
  500000     8661     333.4094   -315.21719   -30630.456     5737.381            0   -30630.456            0            0    72411.371    5719.3769   -24893.075    90352.665    1.0628358 
  501000     8661    326.29676     225.8189   -30588.277    5614.9852            0   -30588.277            0            0     72351.03    5821.5951   -24973.292    89318.197    1.0751454 
  502000     8661    328.19716    39.798879   -30732.014    5647.6877            0   -30732.014            0            0    72210.444    5815.9359   -25084.326      89366.9    1.0745595 
  503000     8661    325.64006    77.017412   -30733.272    5603.6847            0   -30733.272            0            0     72171.39    5852.8335   -25129.588     89421.31    1.0739056 
  504000     8661     326.0152   -10.617096   -30674.699    5610.1401            0   -30674.699            0            0    72263.703    5825.1625   -25064.559    89864.044    1.0686148 
  505000     8661    328.59452   -195.60419   -30587.824    5654.5256            0   -30587.824            0            0    72478.479    5692.2456   -24933.298    89844.975    1.0688416 
  506000     8661     328.0586    259.91473   -30674.088    5645.3035            0   -30674.088            0            0    72134.169    5951.3026   -25028.784     90004.68    1.0669451 
  507000     8661    326.40723   -413.78346   -30670.109    5616.8863            0   -30670.109            0            0     72396.55    5692.3639   -25053.223    90359.558    1.0627547 
  508000     8661    327.04784    2.5738081   -30460.879      5627.91            0   -30460.879            0            0    72537.506    5760.2001   -24832.969     90137.56    1.0653722 
  509000     8661    323.30047    -74.02818   -30632.319    5563.4245            0   -30632.319            0            0    72386.641    5737.5514   -25068.894    89461.556    1.0734225 
  510000     8661    331.25642    263.33448   -30568.407    5700.3321            0   -30568.407            0            0     72259.29    5927.8014   -24868.075    90385.746    1.0624468 
  511000     8661    330.57045   -44.306491   -30760.016    5688.5278            0   -30760.016            0            0    72102.417    5899.5241   -25071.488    90841.452    1.0571171 
  512000     8661    330.94831     195.8013   -30714.017    5695.0302            0   -30714.017            0            0    72124.433    5918.0462   -25018.987    89822.455    1.0691096 
  513000     8661    322.78161    56.832711   -30635.932    5554.4958            0   -30635.932            0            0    72302.426      5820.61   -25081.436    89678.865    1.0708214 
  514000     8661    328.12595   -571.42605   -30635.169    5646.4623            0   -30635.169            0            0    72536.614     5588.471   -24988.706    90085.779    1.0659845 
  515000     8661    330.81403    252.98162   -30566.095    5692.7194            0   -30566.095            0            0    72303.097    5893.4171   -24873.375    89922.938    1.0679149 
  516000     8661    331.63497   -355.73462   -30552.092    5706.8464            0   -30552.092            0            0    72514.688     5693.388   -24845.246    90699.272    1.0587742 
  517000     8661    325.51519   -196.76814   -30736.202    5601.5359            0   -30736.202            0            0    72223.503    5797.0438   -25134.666    89966.565    1.0673971 
  518000     8661    325.60202    -341.9352   -30602.906    5603.0301            0   -30602.906            0            0    72463.285    5696.2512   -24999.876    90362.005     1.062726 
  519000     8661    326.39512    138.07333   -30751.638    5616.6779            0   -30751.638            0            0    72079.041    5929.2795    -25134.96    89732.898    1.0701766 
  520000     8661    331.00949    82.176921   -30711.353    5696.0829            0   -30711.353            0            0    72175.208    5874.5111    -25015.27    90186.061    1.0647992 
  521000     8661    326.63558    208.39578   -30726.652    5620.8157            0   -30726.652            0            0    72127.867    5904.7926   -25105.836    89540.328    1.0724782 
  522000     8661    325.13048    212.55846   -30698.699    5594.9156            0   -30698.699            0            0    72119.778    5943.2209   -25103.783    90080.693    1.0660447 
  523000     8661    324.56249   -168.03985   -30537.431    5585.1416            0   -30537.431            0            0     72463.44    5760.3366   -24952.289     90624.21    1.0596511 
  524000     8661    330.92715    17.359763   -30650.034    5694.6659            0   -30650.034            0            0      72308.7     5805.699   -24955.368    89487.776     1.073108 
  525000     8661    330.26381    53.435389   -30649.444     5683.251            0   -30649.444            0            0    72304.247    5805.4769   -24966.193    89399.388     1.074169 
  526000     8661    332.26175   -557.38809   -30668.097    5717.6321            0   -30668.097            0            0    72466.426    5626.7301   -24950.465    90311.596    1.0633191 
  527000     8661    330.98355    112.46202   -30574.168    5695.6365            0   -30574.168            0            0    72383.714    5804.9333   -24878.532    89679.546    1.0708133 
  528000     8661    325.69093    30.008538   -30752.253      5604.56            0   -30752.253            0            0    72147.603    5860.5863   -25147.693    89774.293    1.0696832 
  529000     8661    323.83794   -456.63218   -30837.759    5572.6734            0   -30837.759            0            0    72172.414    5747.7817   -25265.085     90323.68    1.0631769 
  530000     8661    327.94711    -256.9483   -30638.227    5643.3848            0   -30638.227            0            0    72415.464    5706.4824   -24994.842    90109.148    1.0657081 
  531000     8661    325.01684    -446.4111   -30706.507    5592.9601            0   -30706.507            0            0    72377.739    5671.0884   -25113.546     90139.73    1.0653465 
  532000     8661    331.24628    -75.21619    -30636.14    5700.1577            0    -30636.14            0            0    72332.225    5793.6453   -24935.982    90118.021    1.0656032 
  533000     8661    333.73113   -519.48714   -30689.442    5742.9174            0   -30689.442            0            0    72445.675    5628.0789   -24946.524    89935.198    1.0677693 
  534000     8661    322.32446   -326.11404    -30597.63     5546.629            0    -30597.63            0            0    72452.014     5711.802   -25051.001    90095.434    1.0658703 
  535000     8661      328.679    239.59728   -30750.647    5655.9794            0   -30750.647            0            0    72122.373    5888.2902   -25094.668    89391.269    1.0742665 
  536000     8661    321.16863    136.25538   -30532.819    5526.7393            0   -30532.819            0            0    72421.141    5806.3177   -25006.079    89173.945    1.0768846 
  537000     8661    323.33496   -429.28121   -30681.964     5564.018            0   -30681.964            0            0    72401.501     5682.816   -25117.946    89956.891    1.0675119 
  538000     8661     330.5373   -172.91115   -30673.007    5687.9574            0   -30673.007            0            0    72319.452    5770.4243    -24985.05    89982.794    1.0672046 
  539000     8661    334.45081    399.75406   -30767.422    5755.3019            0   -30767.422            0            0    71966.775    6026.9568    -25012.12    89529.186    1.0726117 
  540000     8661    325.63992     124.7936   -30542.625    5603.6822            0   -30542.625            0            0    72368.534    5847.0758   -24938.943    90155.979    1.0651545 
  541000     8661    332.06245    55.019997   -30761.833    5714.2025            0   -30761.833            0            0    72064.743    5935.9268    -25047.63    90548.557    1.0605365 
  542000     8661    333.05622   -25.826908    -30533.76    5731.3035            0    -30533.76            0            0    72438.746    5788.8654   -24802.456    90741.139    1.0582857 
  543000     8661    322.50263   -125.72264   -30519.671     5549.695            0   -30519.671            0            0    72455.333    5786.5159   -24969.976    90979.372    1.0555145 
  544000     8661    329.70219    298.59358   -30568.003    5673.5866            0   -30568.003            0            0    72309.241    5883.9063   -24894.417    89634.095    1.0713562 
  545000     8661    326.93778   -250.39439   -30448.584    5626.0161            0   -30448.584            0            0    72666.672    5644.2614   -24822.567    89947.213    1.0676267 
  546000     8661    336.26905   -538.57508   -30674.826    5786.5906            0   -30674.826            0            0    72467.402    5619.5948   -24888.236    90376.147    1.0625597 
  547000     8661    332.32854    120.40126   -30490.621    5718.7815            0   -30490.621            0            0    72455.132    5812.7461    -24771.84    90302.335    1.0634282 
  548000     8661    331.46886    146.10079   -30658.462    5703.9878            0   -30658.462            0            0     72259.38    5841.9898   -24954.474    89605.157    1.0717023 
  549000     8661    327.37933   -55.267814   -30679.371    5633.6143            0   -30679.371            0            0    72272.132    5807.5281   -25045.757    89748.163    1.0699946 
  550000     8661    335.73787    290.40506   -30553.072      5777.45            0   -30553.072            0            0    72298.014    5908.3945   -24775.622    90539.788    1.0606392 
  551000     8661    322.81118    84.734729   -30728.037    5555.0046            0   -30728.037            0            0    72155.104    5876.8938   -25173.032    89811.219    1.0692433 
  552000     8661    325.42506     59.00865   -30675.865    5599.9849            0   -30675.865            0            0    72247.835    5834.0206    -25075.88    89756.471    1.0698955 
  553000     8661    330.57277    288.36176   -30746.334    5688.5677            0   -30746.334            0            0    72119.487    5895.3891   -25057.766     88978.94    1.0792447 
  554000     8661    328.75209   -54.253563   -30833.474    5657.2371            0   -30833.474            0            0     72109.96    5818.4406   -25176.237    89470.867    1.0733108 
  555000     8661    325.67126    521.48454   -30691.581    5604.2215            0   -30691.581            0            0    72050.357    6020.7126    -25087.36    89392.896     1.074247 
  556000     8661    331.05294     25.18239   -30594.146    5696.8306            0   -30594.146            0            0    72319.926    5847.9475   -24897.315    89945.686    1.0676448 
  557000     8661    325.18853    19.945082   -30691.416    5595.9146            0   -30691.416            0            0    72232.354     5837.245   -25095.501    89764.411    1.0698009 
  558000     8661    332.50813    282.16787   -30698.627    5721.8719            0   -30698.627            0            0    72173.622    5888.2085   -24976.755    89110.216    1.0776548 
  559000     8661    332.39245     209.9389   -30619.908    5719.8812            0   -30619.908            0            0    72245.359    5893.3869   -24900.027    90255.032    1.0639855 
  560000     8661    330.49171   -26.287848   -30670.216    5687.1728            0   -30670.216            0            0      72286.9    5810.8072   -24983.043    89870.012    1.0685438 
  561000     8661    321.62773   -535.56306   -30641.365    5534.6396            0   -30641.365            0            0    72512.141     5609.081   -25106.726    90026.492    1.0666865 
  562000     8661    329.81037   -126.56253   -30546.133    5675.4483            0   -30546.133            0            0    72469.547    5749.4586   -24870.685    90112.926    1.0656634 
  563000     8661     324.7439   -415.07883    -30647.97    5588.2634            0    -30647.97            0            0     72515.61    5599.9563   -25059.707     89238.56    1.0761049 
  564000     8661    324.96799    188.40652   -30613.266    5592.1196            0   -30613.266            0            0    72277.332    5871.4581   -25021.147    89644.217    1.0712353 
  565000     8661    331.28819    97.704736   -30703.076    5700.8788            0   -30703.076            0            0    72174.076    5879.1767   -25002.197    90128.938    1.0654741 
  566000     8661    325.47957   -200.84727   -30696.485    5600.9229            0   -30696.485            0            0    72334.871    5734.6297   -25095.562    89975.041    1.0672965 
  567000     8661    331.75545   -305.53371   -30694.515    5708.9196            0   -30694.515            0            0    72366.017    5704.0137   -24985.595    89923.871    1.0679039 
  568000     8661    328.44994   -201.74756   -30657.212    5652.0376            0   -30657.212            0            0    72350.306    5754.2066   -25005.175    90067.955    1.0661955 
  569000     8661    332.36055   -36.585648   -30664.066    5719.3322            0   -30664.066            0            0    72280.747    5813.7508   -24944.734    90298.947    1.0634681 
  570000     8661     324.9845    428.36528   -30657.125    5592.4037            0   -30657.125            0            0    72130.884    5971.2551   -25064.721    89462.913    1.0734062 
  571000     8661    325.00254   -252.74522   -30753.635     5592.714            0   -30753.635            0            0    72243.534    5759.9031   -25160.921    89802.626    1.0693457 
  572000     8661    328.77732   -86.895898   -30783.006    5657.6713            0   -30783.006            0            0    72172.425    5805.1187   -25125.335    89744.366    1.0700399 
  573000     8661    331.57184    235.20449   -30648.671    5705.7601            0   -30648.671            0            0    72234.988    5875.8801   -24942.911     89454.59    1.0735061 
  574000     8661     333.2643    175.94575   -30772.548    5734.8842            0   -30772.548            0            0     72055.24    5932.5101   -25037.664    89962.817    1.0674415 
  575000     8661     330.5605   -197.48678   -30607.302    5688.3567            0   -30607.302            0            0    72461.444    5694.5901   -24918.945    89491.573    1.0730625 
  576000     8661    329.87586   -429.54674   -30792.918    5676.5752            0   -30792.918            0            0    72305.528    5662.9295   -25116.343     89059.94    1.0782631 
  577000     8661    330.55648    392.81312    -30703.46    5688.2874            0    -30703.46            0            0    72069.524    5989.8223   -25015.173    89472.033    1.0732968 
  578000     8661    330.15136    386.50798   -30521.235    5681.3161            0   -30521.235            0            0    72355.036    5885.8829   -24839.919    89247.981    1.0759913 
  579000     8661    327.80132   -328.63621   -30762.955    5640.8761            0   -30762.955            0            0    72254.468    5743.1378   -25122.079    90065.503    1.0662245 
  580000     8661    328.15548    239.81856   -30584.357    5646.9705            0   -30584.357            0            0    72320.108    5856.6606   -24937.386    90060.793    1.0662803 
  581000     8661    329.31437   -31.681316   -30730.928    5666.9129            0   -30730.928            0            0    72201.296    5825.8011   -25064.015    90125.703    1.0655123 
  582000     8661     329.3407   -56.496137    -30512.41    5667.3661            0    -30512.41            0            0    72444.518    5797.7926   -24845.044    90754.972    1.0581244 
  583000     8661    331.55465   -205.76467   -30551.005    5705.4643            0   -30551.005            0            0     72500.28    5708.1462    -24845.54    90207.647    1.0645444 
  584000     8661    329.13458     226.4781     -30621.5    5663.8192            0     -30621.5            0            0    72241.997    5894.9875   -24957.681    89821.403    1.0691221 
  585000     8661    332.47719    312.84782   -30701.479    5721.3394            0   -30701.479            0            0    72072.554    5991.9859    -24980.14    90214.152    1.0644677 
  586000     8661    325.17296   -260.88938   -30595.713    5595.6467            0   -30595.713            0            0    72463.705    5699.5707   -25000.066    90108.677    1.0657137 
  587000     8661    327.47311    324.88276   -30679.226    5635.2282            0   -30679.226            0            0    72132.352    5945.3246   -25043.998    89523.647     1.072678 
  588000     8661    317.52143    525.61649   -30496.754    5463.9775            0   -30496.754            0            0    72279.163    5980.1535   -25032.777    89639.044    1.0712971 
  589000     8661    329.20437   -228.72837   -30776.415    5665.0201            0   -30776.415            0            0    72184.441    5796.1309   -25111.395    89894.367    1.0682543 
  590000     8661    327.40555   -141.44753   -30729.324    5634.0656            0   -30729.324            0            0    72203.364    5825.9304   -25095.259    90289.934    1.0635742 
  591000     8661    330.69497    342.18029   -30602.155    5690.6706            0   -30602.155            0            0    72235.386    5921.0395   -24911.485      90066.4    1.0662139 
  592000     8661    323.45839   -11.794731   -30715.688     5566.142            0   -30715.688            0            0    72202.079    5841.4789   -25149.546    89846.697    1.0688211 
  593000     8661    332.45992    141.72064   -30538.403    5721.0423            0   -30538.403            0            0    72389.596    5830.3547   -24817.361    89960.539    1.0674686 
  594000     8661     324.7969   0.38129816   -30800.713    5589.1754            0   -30800.713            0            0    72062.008    5897.8335   -25211.538    89991.411    1.0671024 
  595000     8661     324.3514   -205.92056   -30692.986     5581.509            0   -30692.986            0            0    72277.106    5790.1681   -25111.477    90383.145    1.0624774 
  596000     8661    327.95491    339.31704   -30743.258    5643.5191            0   -30743.258            0            0    71991.012    6026.3001   -25099.739    89997.817    1.0670264 
  597000     8661    326.52318   -295.95115   -30725.289    5618.8815            0   -30725.289            0            0    72246.527    5793.7568   -25106.408    90545.224    1.0605755 
  598000     8661    326.51255    243.76649   -30610.561    5618.6985            0   -30610.561            0            0    72275.833    5873.0616   -24991.862    89800.234    1.0693741 
  599000     8661    328.69299    66.573591   -30643.711    5656.2201            0   -30643.711            0            0    72295.512    5824.8617   -24987.491    89971.438    1.0673393 
  600000     8661    327.30931    164.32414   -30660.332    5632.4094            0   -30660.332            0            0    72249.712    5850.3053   -25027.923    89449.301    1.0735696 
  601000     8661    327.95668   -410.66777   -30529.389    5643.5496            0   -30529.389            0            0    72612.587    5620.8999   -24885.839    90350.621    1.0628599 
  602000     8661    323.10315    250.07213    -30612.56     5560.029            0    -30612.56            0            0     72285.63    5865.3845   -25052.531    89747.235    1.0700056 
  603000     8661    323.52236    42.018454   -30680.612    5567.2428            0   -30680.612            0            0    72214.044    5863.6112    -25113.37    89832.726    1.0689874 
  604000     8661    329.80544     75.30781   -30747.156    5675.3634            0   -30747.156            0            0    72157.126    5849.5917   -25071.792    89384.942    1.0743426 
  605000     8661    329.69497   -145.37085   -30598.918    5673.4624            0   -30598.918            0            0    72468.527    5692.9221   -24925.456    89347.045    1.0747983 
  606000     8661    327.79956    542.78756   -30812.783    5640.8457            0   -30812.783            0            0    71856.805     6096.641   -25171.937    89768.906    1.0697473 
  607000     8661     330.6548   -223.76392   -30586.921    5689.9794            0   -30586.921            0            0    72432.501     5740.172   -24896.941    90340.276    1.0629816 
  608000     8661    331.85348     388.9625   -30611.283    5710.6065            0   -30611.283            0            0    72213.569    5937.1035   -24900.676    89407.922    1.0740664 
  609000     8661    326.33633    156.47883   -30849.303    5615.6661            0   -30849.303            0            0    71974.961    5935.1772   -25233.637    89738.721    1.0701072 
  610000     8661    320.83996    67.913014   -30576.678    5521.0834            0   -30576.678            0            0    72397.897    5777.9196   -25055.594    89595.761    1.0718146 
  611000     8661    327.41079   -53.983715   -30600.842    5634.1557            0   -30600.842            0            0     72365.81    5792.3906   -24966.686    90079.569     1.066058 
  612000     8661    336.90204   -393.80304   -30611.722    5797.4832            0   -30611.722            0            0    72470.154     5675.968   -24814.239    90627.278    1.0596153 
  613000     8661    325.93737    64.851358   -30796.223    5608.8008            0   -30796.223            0            0    72051.403    5914.5439   -25187.422    90063.801    1.0662447 
  614000     8661    330.39311    355.36019   -30731.379    5685.4761            0   -30731.379            0            0    72040.499    5986.1124   -25045.903    89799.388    1.0693842 
  615000     8661    324.46247    21.849435   -30813.517    5583.4204            0   -30813.517            0            0    72098.881    5850.9087   -25230.097    89652.948     1.071131 
  616000     8661    335.71168    11.203048   -30612.698    5776.9992            0   -30612.698            0            0    72349.322    5802.9056   -24835.698    90063.837    1.0662443 
  617000     8661    325.64945   -189.09838    -30702.68    5603.8462            0    -30702.68            0            0    72265.658    5792.9173   -25098.834    90574.385    1.0602341 
  618000     8661    332.91894    324.18336   -30641.023    5728.9411            0   -30641.023            0            0    72201.948    5920.1955   -24912.082    89688.589    1.0707053 
  619000     8661    334.37557    380.29552   -30721.979    5754.0072            0   -30721.979            0            0    72059.181    5978.3927   -24967.972    89798.936    1.0693896 
  620000     8661    329.41433   -53.799479   -30817.995    5668.6331            0   -30817.995            0            0     72043.55    5895.5012   -25149.362    90685.055    1.0589402 
  621000     8661    327.84335     34.67621   -30768.268    5641.5994            0   -30768.268            0            0    72156.844    5836.1481   -25126.668     89397.49    1.0741918 
  622000     8661    326.09809   -341.41457   -30690.443    5611.5664            0   -30690.443            0            0    72347.153    5724.5225   -25078.877    90513.304    1.0609495 
  623000     8661    326.02823   -420.02227   -30734.287    5610.3644            0   -30734.287            0            0    72308.713    5716.5652   -25123.922    90652.442    1.0593211 
  624000     8661    325.31549    161.82155   -30732.217    5598.0994            0   -30732.217            0            0    72152.761    5875.4217   -25134.118    89653.258    1.0711273 
  625000     8661    330.42238   -188.09291   -30629.729    5685.9799            0   -30629.729            0            0    72431.038    5700.4119   -24943.749    89476.445    1.0732439 
  626000     8661     330.2493   -62.628426   -30741.108    5683.0015            0   -30741.108            0            0    72159.115    5852.4445   -25058.106    90251.226    1.0640304 
  627000     8661    324.40463    99.610936    -30873.17    5582.4251            0    -30873.17            0            0    71964.728    5924.0426   -25290.745    89611.377    1.0716279 
  628000     8661    329.52843   -305.20203   -30701.581    5670.5966            0   -30701.581            0            0    72325.617    5734.0286   -25030.985    90609.804    1.0598196 
  629000     8661    329.90553    157.02804   -30659.772    5677.0858            0   -30659.772            0            0    72186.476    5914.0553   -24982.686    90516.446    1.0609127 
  630000     8661    335.72179   -91.629741    -30756.97    5777.1732            0    -30756.97            0            0    72224.128     5777.707   -24979.797    89596.206    1.0718093 
  631000     8661    322.89724    33.473346   -30678.774    5556.4855            0   -30678.774            0            0    72180.006    5904.9141   -25122.288    90878.873    1.0566818 
  632000     8661    334.75637    305.68463   -30659.156    5760.5601            0   -30659.156            0            0    72141.247    5959.7499   -24898.596    90389.163    1.0624067 
  633000     8661    330.85317    243.61244   -30725.426    5693.3929            0   -30725.426            0            0    72105.321    5930.6488   -25032.033    89748.893    1.0699859 
  634000     8661    331.79141    264.01099   -30616.969    5709.5385            0   -30616.969            0            0    72217.045    5926.1093   -24907.431    90223.213    1.0643608 
  635000     8661    324.59682   -324.18138   -30575.753    5585.7324            0   -30575.753            0            0    72503.203     5680.227   -24990.021    89842.321    1.0688732 
  636000     8661    328.96662    17.728183   -30587.619    5660.9288            0   -30587.619            0            0    72401.995    5768.3159    -24926.69    89660.701    1.0710383 
  637000     8661    327.82969    582.74466   -30607.828    5641.3642            0   -30607.828            0            0    72201.352    5951.0566   -24966.464    88918.043    1.0799838 
  638000     8661    326.79975     -324.985   -30535.989    5623.6408            0   -30535.989            0            0    72622.599     5601.259   -24912.349    89615.641    1.0715769 
  639000     8661    330.21801    8.4387892   -30724.369    5682.4631            0   -30724.369            0            0    72247.272    5791.0067   -25041.906    88829.297    1.0810628 
  640000     8661    329.46354    28.061754   -30583.277    5669.4799            0   -30583.277            0            0    72400.908    5778.0491   -24913.797    89296.605    1.0754054 
  641000     8661    326.65257    184.30434   -30775.242     5621.108            0   -30775.242            0            0    72060.011    5926.0641   -25154.134     89401.06    1.0741489 
  642000     8661    326.66453   -225.02489   -30564.689    5621.3139            0   -30564.689            0            0    72411.512    5786.7356   -24943.375    91497.274      1.04954 
  643000     8661    326.73046    463.46778    -30786.04    5622.4485            0    -30786.04            0            0    71918.987    6056.1116   -25163.592    89724.563     1.070276 
  644000     8661    329.70722   -85.581497   -30492.616    5673.6732            0   -30492.616            0            0    72552.131    5711.6728   -24818.943    90161.343    1.0650911 
  645000     8661    327.13626   -127.43656   -30711.341    5629.4316            0   -30711.341            0            0    72293.801    5755.0236   -25081.909    89748.793    1.0699871 
  646000     8661    326.32571    157.59426   -30741.932    5615.4834            0   -30741.932            0            0    72126.297    5894.4582   -25126.449    89761.069    1.0698407 
  647000     8661    329.53649    105.90705   -30552.127    5670.7352            0   -30552.127            0            0    72351.508     5855.484   -24881.392    90442.994    1.0617743 
  648000     8661    325.30084   -238.48122   -30716.726    5597.8473            0   -30716.726            0            0    72255.387     5792.556   -25118.879    90104.402    1.0657642 
  649000     8661    333.12809    147.29473   -30628.672    5732.5402            0   -30628.672            0            0    72302.198    5830.4492   -24896.132    89705.273    1.0705062 
  650000     8661    329.10449   -53.900927   -30676.637    5663.3013            0   -30676.637            0            0    72268.381     5811.565   -25013.336     90318.69    1.0632356 
  651000     8661    325.38905    164.29463   -30676.844    5599.3652            0   -30676.844            0            0    72142.691    5941.0266   -25077.479    90574.248    1.0602357 
  652000     8661    326.93172    20.659291   -30542.726    5625.9118            0   -30542.726            0            0    72404.091    5816.8326   -24916.814      90357.2    1.0627825 
  653000     8661     331.7971   -15.844015   -30606.484    5709.6364            0   -30606.484            0            0    72356.848    5796.9291   -24896.848    89828.479    1.0690379 
  654000     8661    325.00973   -450.74031   -30639.598    5592.8378            0   -30639.598            0            0    72514.938    5608.1251    -25046.76      89684.9    1.0707493 
  655000     8661    330.63367    -247.3364   -30691.294    5689.6158            0   -30691.294            0            0    72316.682    5752.2399   -25001.678    89968.206    1.0673776 
  656000     8661    326.30597    -56.83917   -30832.955    5615.1438            0   -30832.955            0            0    72040.832    5889.1951   -25217.811    90036.732    1.0665652 
  657000     8661     328.2542    -124.5736   -30713.291    5648.6693            0   -30713.291            0            0    72276.059    5773.3604   -25064.621    89664.731    1.0709902 
  658000     8661    325.48229    212.38307   -30505.416    5600.9696            0   -30505.416            0            0    72429.181     5827.225   -24904.446     89809.43    1.0692646 
  659000     8661    327.37855   -250.59064   -30726.335     5633.601            0   -30726.335            0            0    72280.892    5748.5834   -25092.734    89915.061    1.0680085 
  660000     8661    327.39563   -79.678829   -30615.728    5633.8948            0   -30615.728            0            0     72369.82    5778.4929   -24981.834    90019.258    1.0667723 
  661000     8661    330.56013    297.46976   -30699.931    5688.3503            0   -30699.931            0            0    72084.873    5980.5377   -25011.581    90350.112    1.0628658 
  662000     8661    332.38605   -75.944716   -30462.356     5719.771            0   -30462.356            0            0    72619.476    5681.5744   -24742.585    89675.499    1.0708616 
  663000     8661    330.43733    109.88066   -30791.008     5686.237            0   -30791.008            0            0    72070.328    5904.5078   -25104.771    89408.765    1.0740563 
  664000     8661    327.71435    122.81336   -30713.794    5639.3794            0   -30713.794            0            0    72177.306    5867.9806   -25074.414    89377.709    1.0744295 
  665000     8661    329.36817   -559.75283   -30524.408    5667.8388            0   -30524.408            0            0    72647.631    5591.4918   -24856.569    90676.517    1.0590399 
  666000     8661    327.64243   -46.837087   -30526.372    5638.1419            0   -30526.372            0            0    72468.671    5763.7085    -24888.23    90012.118    1.0668569 
  667000     8661    330.22131    230.27952    -30683.78    5682.5198            0    -30683.78            0            0    72188.745    5889.1814    -25001.26    89383.271    1.0743627 
  668000     8661    326.38216   -330.63339   -30563.165    5616.4549            0   -30563.165            0            0    72504.499    5692.7254    -24946.71    90353.942    1.0628208 
  669000     8661    333.24883    55.495824   -30640.189    5734.6179            0   -30640.189            0            0    72296.145    5826.1458   -24905.571    89729.514     1.070217 
  670000     8661    327.00973   -124.26612    -30576.04    5627.2542            0    -30576.04            0            0     72392.59    5783.2873   -24948.786     90480.37    1.0613357 
  671000     8661    324.61663   -343.88081    -30512.02    5586.0732            0    -30512.02            0            0    72536.503    5712.4375   -24925.947    91412.351     1.050515 
  672000     8661    334.71611    224.96062   -30559.819    5759.8672            0   -30559.819            0            0    72434.373    5771.3113   -24799.952    89024.536    1.0786919 
  673000     8661    326.87178    96.734745   -30673.844    5624.8804            0   -30673.844            0            0    72219.242    5867.9196   -25048.964    90102.261    1.0657896 
  674000     8661    330.07438   -303.79785   -30583.804    5679.9914            0   -30583.804            0            0    72478.483    5696.0627   -24903.813    90453.274    1.0616536 
  675000     8661    325.05327     99.37053   -30642.367     5593.587            0   -30642.367            0            0    72231.735    5888.4982   -25048.781    89792.116    1.0694708 
  676000     8661    326.36789   -580.37887   -30520.191    5616.2093            0   -30520.191            0            0    72707.376     5531.952   -24903.982    89916.802    1.0679878 
  677000     8661    328.35929   -212.78383   -30803.851    5650.4777            0   -30803.851            0            0    72183.595    5771.9213   -25153.373    89348.354    1.0747825 
  678000     8661    329.35855     240.5984   -30701.645    5667.6732            0   -30701.645            0            0    72133.378    5925.9672   -25033.972    89330.583    1.0749963 
  679000     8661    326.19903    109.85804   -30647.197    5613.3034            0   -30647.197            0            0    72205.558    5903.2422   -25033.894    90144.855     1.065286 
  680000     8661    325.39093     -46.8201   -30681.175    5599.3975            0   -30681.175            0            0    72223.566    5853.2089   -25081.777    90421.016    1.0620324 
  681000     8661    327.40792    76.733868    -30838.05    5634.1064            0    -30838.05            0            0    72016.848     5906.771   -25203.944    89687.724    1.0707156 
  682000     8661    323.13388   -141.66275   -30768.002    5560.5578            0   -30768.002            0            0    72197.214    5797.9769   -25207.444    89704.818    1.0705116 
  683000     8661    330.01143   -231.03728   -30604.568    5678.9081            0   -30604.568            0            0    72410.506    5739.9975    -24925.66    90250.523    1.0640387 
  684000     8661     330.8041    -87.76124   -30656.971    5692.5485            0   -30656.971            0            0    72277.076    5827.9978   -24964.423    90669.013    1.0591275 
  685000     8661    327.12499    71.950175   -30688.752    5629.2377            0   -30688.752            0            0    72196.038    5874.6511   -25059.515    89703.297    1.0705297 
  686000     8661    330.40707   -99.419682   -30649.058    5685.7164            0   -30649.058            0            0     72357.68    5750.8018   -24963.341    90072.271    1.0661444 
  687000     8661     320.8259   -145.83728   -30660.349    5520.8416            0   -30660.349            0            0    72372.277    5728.3051   -25139.507    89408.963    1.0740539 
  688000     8661    326.73468   -225.56622   -30634.718    5622.5211            0   -30634.718            0            0     72390.59    5732.0041   -25012.197    90212.845    1.0644831 
  689000     8661    328.47553    84.960858   -30666.752    5652.4779            0   -30666.752            0            0    72273.433    5819.2485   -25014.274    89542.955    1.0724467 
  690000     8661    329.59496    281.73503   -30629.258    5671.7413            0   -30629.258            0            0    72225.689    5907.8646   -24957.517    90161.957    1.0650839 
  691000     8661    325.47507    44.151744   -30779.312    5600.8454            0   -30779.312            0            0    72151.779    5827.5689   -25178.467    88780.915    1.0816519 
  692000     8661     328.6018    178.47741   -30617.844    5654.6509            0   -30617.844            0            0    72359.366    5786.1784   -24963.193    88874.916    1.0805079 
  693000     8661    328.31479      215.556   -30763.974    5649.7119            0   -30763.974            0            0    72101.311    5896.8407   -25114.262    89287.336     1.075517 
  694000     8661    324.25716   -101.13129   -30793.071    5579.8875            0   -30793.071            0            0    72151.012    5812.0561   -25213.183    89422.979    1.0738856 
  695000     8661    324.25192   -216.07469   -30583.525    5579.7972            0   -30583.525            0            0    72460.342    5717.1562   -25003.727    90056.607    1.0663298 
  696000     8661     323.4254    160.91451   -30597.366    5565.5743            0   -30597.366            0            0    72273.215    5891.2291   -25031.792    89931.298    1.0678157 
  697000     8661    328.57619    16.075734    -30522.82    5654.2102            0    -30522.82            0            0     72472.84    5763.5632    -24868.61    89767.679     1.069762 
  698000     8661    321.11928    259.05027   -30665.202      5525.89            0   -30665.202            0            0    72201.423    5900.5483   -25139.312    89449.944    1.0735619 
  699000     8661    328.12644   -7.1725972   -30824.334    5646.4707            0   -30824.334            0            0    72026.741    5908.7969   -25177.863     90358.04    1.0627726 
  700000     8661    326.11701   -228.26185   -30755.469    5611.8921            0   -30755.469            0            0    72212.061    5792.3373   -25143.577    90326.591    1.0631426 
  701000     8661    329.31448   -108.17339   -30794.401    5666.9148            0   -30794.401            0            0    72087.246    5881.0494   -25127.486    90860.089    1.0569002 
  702000     8661    332.93271    38.270049   -30720.892    5729.1781            0   -30720.892            0            0    72219.349    5825.5509   -24991.714    90118.989    1.0655917 
  703000     8661    328.07047   -77.670409   -30673.955    5645.5077            0   -30673.955            0            0    72312.858    5765.7324   -25028.447    89437.843    1.0737071 
  704000     8661    323.68484    397.32804   -30850.773    5570.0387            0   -30850.773            0            0    71899.421    6011.1848   -25280.734    88976.996    1.0792683 
  705000     8661    330.93117    142.84358   -30753.563    5694.7351            0   -30753.563            0            0    72208.805     5791.798   -25058.828    88600.223    1.0838579 
  706000     8661     334.9128   -505.49539   -30698.351    5763.2519            0   -30698.351            0            0    72427.231    5639.2463   -24935.099    89627.687    1.0714329 
  707000     8661    324.09276    70.433479   -30625.444    5577.0584            0   -30625.444            0            0    72298.153    5834.0975   -25048.386    89618.738    1.0715398 
  708000     8661    333.06888   -202.65233   -30548.642    5731.5213            0   -30548.642            0            0    72502.979    5710.9102   -24817.121    90192.546    1.0647227 
  709000     8661    324.99777   -49.782687   -30641.289    5592.6319            0   -30641.289            0            0    72353.697    5766.6588   -25048.657    89527.294    1.0726343 
  710000     8661    330.85252   -161.81754   -30636.023    5693.3819            0   -30636.023            0            0    72365.844    5757.4541   -24942.642    90125.313    1.0655169 
  711000     8661    317.17855   -385.18782   -30706.607    5458.0772            0   -30706.607            0            0    72308.057    5745.3276    -25248.53    90283.649    1.0636483 
  712000     8661    323.87559    78.386167   -30692.851    5573.3212            0   -30692.851            0            0    72213.009    5853.3081    -25119.53    89941.697    1.0676922 
  713000     8661    324.96465    292.63815   -30541.844     5592.062            0   -30541.844            0            0     72271.39    5947.3818   -24949.782    90461.289    1.0615596 
  714000     8661    327.85563    395.35778     -30652.5    5641.8107            0     -30652.5            0            0    72187.969    5919.6147   -25010.689    89149.236    1.0771831 
  715000     8661    321.95114   -272.60833   -30813.332     5540.205            0   -30813.332            0            0    72157.204    5789.8672   -25273.127    90217.689    1.0644259 
  716000     8661    328.30205    260.34475   -30644.223    5649.4927            0   -30644.223            0            0    72229.299    5885.1664    -24994.73    89825.097    1.0690781 
  717000     8661    330.46142    -42.88701   -30709.917    5686.6517            0   -30709.917            0            0    72204.652    5846.9356   -25023.266    90536.639    1.0606761 
  718000     8661    332.36871   -295.21853   -30648.143    5719.4727            0   -30648.143            0            0    72394.056    5718.8911    -24928.67    90313.809    1.0632931 
  719000     8661    329.19315    240.78429   -30752.651    5664.8269            0   -30752.651            0            0    72047.499    5955.0117   -25087.824    89550.642    1.0723547 
  720000     8661     322.0397   -239.87475   -30608.566    5541.7289            0   -30608.566            0            0    72445.444    5709.4812   -25066.837    90468.525    1.0614747 
  721000     8661    322.64382    91.127848   -30571.635    5552.1247            0   -30571.635            0            0    72340.063    5848.1634    -25019.51    90310.852    1.0633279 
  722000     8661    325.23806   -163.46231   -30726.169    5596.7669            0   -30726.169            0            0    72259.323    5777.6253   -25129.402    89804.371    1.0693249 
  723000     8661    332.39865    -117.9488   -30557.235    5719.9878            0   -30557.235            0            0    72464.901    5738.1025   -24837.248    89988.509    1.0671368 
  724000     8661    323.49093   -291.60218   -30582.701    5566.7019            0   -30582.701            0            0    72515.531    5663.5918   -25015.999    89638.368    1.0713052 
  725000     8661    327.38878   -112.82231    -30638.31    5633.7769            0    -30638.31            0            0    72341.958    5779.6708   -25004.533    90168.109    1.0650112 
  726000     8661    330.51128   -164.47054   -30782.235    5687.5097            0   -30782.235            0            0    72161.484    5818.8087   -25094.725    90029.803    1.0666473 
  727000     8661    324.67995    234.89545   -30602.319    5587.1628            0   -30602.319            0            0    72297.737    5862.9473   -25015.156     89595.67    1.0718157 
  728000     8661    326.78697    263.32414   -30626.582     5623.421            0   -30626.582            0            0    72248.156    5886.7172   -25003.161    89783.425    1.0695743 
  729000     8661    322.29062    113.42683   -30563.129    5546.0467            0   -30563.129            0            0    72396.122    5801.4177   -25017.082    89601.851    1.0717418 
  730000     8661    322.87501   -100.94551   -30636.367    5556.1031            0   -30636.367            0            0    72321.552    5795.1881   -25080.264    90049.935    1.0664089 
  731000     8661    326.00506    22.585067   -30790.282    5609.9656            0   -30790.282            0            0    72060.699    5905.7693   -25180.317    89933.792     1.067786 
  732000     8661    329.16189    22.003415   -30486.197     5664.289            0   -30486.197            0            0    72511.586    5763.1898   -24821.908    89932.032    1.0678069 
  733000     8661    329.89207   -471.12096   -30566.158    5676.8542            0   -30566.158            0            0    72650.199    5545.1897   -24889.304    89744.612    1.0700369 
  734000     8661    322.64179   -175.85894   -30647.205    5552.0898            0   -30647.205            0            0    72376.794    5736.4273   -25095.115    90128.651    1.0654775 
  735000     8661    328.00161    37.692655   -30552.606    5644.3227            0   -30552.606            0            0    72452.734    5754.6053   -24908.284    89312.476    1.0752143 
  736000     8661    328.29631    392.68979    -30520.42     5649.394            0    -30520.42            0            0    72314.906    5922.3538   -24871.026    89911.887    1.0680462 
  737000     8661    327.34594    40.191321   -30584.071    5633.0397            0   -30584.071            0            0    72382.097    5791.4793   -24951.031    89628.157    1.0714272 
  738000     8661    328.28783    22.343942   -30837.014     5649.248            0   -30837.014            0            0    72045.149    5879.7712   -25187.766    89235.866    1.0761373 
  739000     8661    335.59835   -254.42387   -30847.244     5775.049            0   -30847.244            0            0    72185.119    5729.7025   -25072.195    89116.213    1.0775822 
  740000     8661    329.26353   -265.71002   -30748.096    5666.0381            0   -30748.096            0            0    72227.433    5787.0653   -25082.057    90467.475     1.061487 
  741000     8661    326.92768    289.29088   -30729.529    5625.8423            0   -30729.529            0            0    72088.311    5941.4224   -25103.686     89431.39    1.0737846 
  742000     8661     331.2445    271.62196    -30578.63    5700.1271            0    -30578.63            0            0    72342.866    5841.9456   -24878.502    89641.224    1.0712711 
  743000     8661    326.40361   -227.25235   -30602.978    5616.8239            0   -30602.978            0            0    72437.436    5718.1999   -24986.154    90420.513    1.0620383 
  744000     8661    324.89423   -133.45699   -30702.473    5590.8503            0   -30702.473            0            0    72224.956    5834.5413   -25111.622    90471.194    1.0614434 
  745000     8661    330.84766    202.98789   -30692.472    5693.2981            0   -30692.472            0            0    72181.335    5885.8539   -24999.174    89430.959    1.0737898 
  746000     8661    326.23035   -150.22775   -30602.473    5613.8424            0   -30602.473            0            0    72448.663    5703.7813    -24988.63    89597.864    1.0717895 
  747000     8661    321.30273   -41.941114   -30538.663    5529.0469            0   -30538.663            0            0    72414.336    5804.5816   -25009.616    90275.753    1.0637413 
  748000     8661    329.36834    -224.2497    -30841.55    5667.8416            0    -30841.55            0            0     72132.35    5789.1237   -25173.708    89803.425    1.0693361 
  749000     8661    328.03811    -67.96275   -30655.548    5644.9508            0   -30655.548            0            0    72295.469    5811.9368   -25010.597    90154.611    1.0651707 
  750000     8661    329.34672   -470.51727   -30628.071    5667.4696            0   -30628.071            0            0    72516.116    5614.5964   -24960.601    89829.502    1.0690257 
  751000     8661    333.62028   -221.07876   -30577.978      5741.01            0   -30577.978            0            0    72437.707    5743.2311   -24836.968    90436.515    1.0618504 
  752000     8661    329.18214   -323.29984   -30699.519    5664.6375            0   -30699.519            0            0    72350.136    5706.0438   -25034.882    89837.862    1.0689262 
  753000     8661    325.52797   -170.02342   -30620.697    5601.7558            0   -30620.697            0            0    72408.551    5731.3919   -25018.941    89771.306    1.0697187 
  754000     8661    326.03942     257.9178   -30681.821    5610.5569            0   -30681.821            0            0    72144.603    5935.1088   -25071.264    89906.941    1.0681049 
  755000     8661    327.42075   -58.074886   -30576.841    5634.3271            0   -30576.841            0            0    72380.611    5801.1694   -24942.514    89949.513    1.0675994 
  756000     8661    326.95342   -227.07319   -30618.258    5626.2853            0   -30618.258            0            0    72470.996    5673.0536   -24991.972    89372.352    1.0744939 
  757000     8661    325.46872   -40.349246   -30623.715    5600.7362            0   -30623.715            0            0    72390.891    5740.8912   -25022.979    89040.483    1.0784987 
  758000     8661    322.28949   -304.39474    -30487.84    5546.0272            0    -30487.84            0            0    72628.952    5644.8452   -24941.813    89988.465    1.0671373 
  759000     8661     333.2351   -252.04076   -30614.611    5734.3816            0   -30614.611            0            0    72409.959    5735.1849   -24880.229    90670.027    1.0591157 
  760000     8661    326.57384     72.80963   -30472.863    5619.7533            0   -30472.863            0            0    72480.406    5806.2833    -24853.11    90243.617    1.0641201 
  761000     8661    327.01914   -127.44584   -30832.381     5627.416            0   -30832.381            0            0      72117.1     5811.875   -25204.965     89327.68    1.0750313 
  762000     8661    326.49955   -40.983015   -30627.276     5618.475            0   -30627.276            0            0    72376.944      5755.35   -25008.801    89476.157    1.0732473 
  763000     8661    334.93339   -194.28712   -30525.227    5763.6062            0   -30525.227            0            0    72498.746    5733.4225    -24761.62    90525.131    1.0608109 
  764000     8661    330.26815    149.02152   -30670.134    5683.3258            0   -30670.134            0            0    72242.184    5848.0013   -24986.808    89348.298    1.0747832 
  765000     8661    327.14981    321.58558   -30764.541    5629.6647            0   -30764.541            0            0    72058.631     5940.967   -25134.876    89106.007    1.0777057 
  766000     8661    323.58638   -93.662439   -30671.221    5568.3445            0   -30671.221            0            0    72310.623    5783.0932   -25102.876    89851.234    1.0687672 
  767000     8661    328.51943   -29.445569   -30791.655    5653.2335            0   -30791.655            0            0    72116.739    5850.0457   -25138.422    89519.876    1.0727232 
  768000     8661    324.90732   -124.58056   -30956.674    5591.0754            0   -30956.674            0            0    71880.465    5923.5511   -25365.599    89976.113    1.0672838 
  769000     8661    327.70502     61.51686   -30663.538    5639.2189            0   -30663.538            0            0    72253.296    5846.2282   -25024.319    89823.294    1.0690996 
  770000     8661    324.97667    179.03098   -30739.016    5592.2689            0   -30739.016            0            0    72100.749    5919.7192   -25146.747    89427.847    1.0738271 
  771000     8661     326.3171    298.45784   -30775.015    5615.3352            0   -30775.015            0            0    72052.499    5936.8032    -25159.68    89226.935    1.0762451 
  772000     8661    327.85702   -323.03199   -30778.172    5641.8346            0   -30778.172            0            0    72225.707    5761.7518   -25136.337    90159.374    1.0651144 
  773000     8661    322.33224    29.224977   -30839.784    5546.7629            0   -30839.784            0            0    72020.201    5901.3976   -25293.021    89485.801    1.0731317 
  774000     8661    325.92764   -220.02463   -30605.629    5608.6334            0   -30605.629            0            0    72403.924    5752.1826   -24996.995    90428.852    1.0619404 
  775000     8661    326.71342   -225.38133   -30661.022    5622.1552            0   -30661.022            0            0    72327.601    5770.7176   -25038.867    90128.529    1.0654789 
  776000     8661    328.91214   -82.163835   -30541.278    5659.9913            0   -30541.278            0            0    72534.884    5684.8253   -24881.286    88973.353    1.0793125 
  777000     8661    322.99619   -382.20224   -30534.632    5558.1884            0   -30534.632            0            0    72610.365    5613.6389   -24976.443    89981.319    1.0672221 
  778000     8661    326.25213   -25.771819   -30595.994    5614.2172            0   -30595.994            0            0    72357.561    5806.5221   -24981.776    90319.924    1.0632211 
  779000     8661    327.02764    150.21796   -30474.466    5627.5624            0   -30474.466            0            0    72483.518    5797.7408   -24846.904    90178.802    1.0648849 
  780000     8661    324.95477     88.75634   -30681.211     5591.892            0   -30681.211            0            0    72200.428    5876.8262   -25089.319    89775.504    1.0696687 
  781000     8661    330.39808   -184.59213   -30667.333    5685.5617            0   -30667.333            0            0    72359.229    5734.4551   -24981.771    89988.361    1.0671385 
  782000     8661    324.30988    502.09502   -30701.404    5580.7947            0   -30701.404            0            0    72054.644    6004.6314   -25120.609    89308.425     1.075263 
  783000     8661    322.69357    380.90276   -30594.702    5552.9809            0   -30594.702            0            0    72182.215    5979.9122   -25041.721    89803.131    1.0693396 
  784000     8661    322.55605    35.007242   -30654.838    5550.6144            0   -30654.838            0            0    72289.042     5815.878   -25104.224    89089.986    1.0778995 
  785000     8661    334.04066    267.46322    -30693.67     5748.244            0    -30693.67            0            0     72152.64    5914.6706   -24945.426    89761.652    1.0698338 
  786000     8661     326.7707    64.703352    -30698.13    5623.1409            0    -30698.13            0            0    72182.945    5882.0016   -25074.989     89516.52    1.0727634 
  787000     8661     335.4804    161.80514   -30588.884    5773.0193            0   -30588.884            0            0    72360.451    5813.2492   -24815.864    89784.057    1.0695668 
  788000     8661    326.06444    26.941225   -30763.184    5610.9875            0   -30763.184            0            0    72183.597    5809.5926   -25152.196      89085.9    1.0779489 
  789000     8661    327.94357   -187.78896   -30784.431    5643.3239            0   -30784.431            0            0    72191.198    5784.9702   -25141.107    89589.832    1.0718856 
  790000     8661    331.51341   -80.977254   -30572.219    5704.7544            0   -30572.219            0            0     72402.34    5787.6442   -24867.465    90498.279    1.0611257 
  791000     8661    331.95651    232.54209    -30628.15    5712.3795            0    -30628.15            0            0    72262.914    5872.5853    -24915.77    89861.433    1.0686459 
  792000     8661    329.87572   -92.272246   -30841.606    5676.5727            0   -30841.606            0            0    71989.507    5926.2745   -25165.034    90804.456    1.0575478 
  793000     8661    324.62498    142.15125   -30672.875    5586.2169            0   -30672.875            0            0    72162.776    5925.8358   -25086.658     90041.24    1.0665118 
  794000     8661     330.0675    448.79034   -30611.216     5679.873            0   -30611.216            0            0    72224.188    5924.1465   -24931.343    89299.197    1.0753742 
  795000     8661    327.54123    7.9748938   -30675.619    5636.4004            0   -30675.619            0            0     72252.64    5830.1401   -25039.219    89791.383    1.0694796 
  796000     8661    331.29337     -188.081    -30623.58     5700.968            0    -30623.58            0            0    72378.385    5756.5115   -24922.611    90645.242    1.0594053 
  797000     8661    327.86749    173.33149   -30693.013    5642.0147            0   -30693.013            0            0    72169.541    5895.9952   -25050.998    89705.422    1.0705044 
  798000     8661    326.68822   -86.684341   -30658.684    5621.7216            0   -30658.684            0            0    72348.459    5749.1825   -25036.962    89580.934     1.071992 
  799000     8661    328.86187   -473.27025   -30498.512    5659.1262            0   -30498.512            0            0    72645.013    5621.7418   -24839.386     90972.14    1.0555984 
  800000     8661    327.83023    65.622376   -30663.406    5641.3736            0   -30663.406            0            0    72272.453     5821.753   -25022.032    89380.163       1.0744 
  801000     8661     330.7563   -353.17213   -30697.432     5691.726            0   -30697.432            0            0    72321.598    5739.6094   -25005.706    90294.133    1.0635248 
  802000     8661    324.58606     638.7359   -30592.465    5585.5472            0   -30592.465            0            0    72112.918    6050.1606   -25006.918    89774.798    1.0696771 
  803000     8661    324.00338     -2.04112   -30905.343    5575.5203            0   -30905.343            0            0    71982.576     5872.406   -25329.823    89323.282    1.0750842 
  804000     8661    327.17627    463.16354   -30598.452    5630.1201            0   -30598.452            0            0     72186.59    5979.7776   -24968.332    89630.916    1.0713942 
  805000     8661    325.55825   -21.271493   -30777.746    5602.2768            0   -30777.746            0            0    72103.219    5880.2637    -25175.47    89697.109    1.0706036 
  806000     8661    328.76637    74.895563   -30623.979    5657.4828            0   -30623.979            0            0    72321.132    5815.4809   -24966.496    89503.357    1.0729212 
  807000     8661    327.95875    75.485472   -30630.672    5643.5852            0   -30630.672            0            0    72273.674    5854.7508   -24987.087     90032.99    1.0666096 
  808000     8661    327.72091    308.93275   -30783.247    5639.4923            0   -30783.247            0            0    71981.328     5995.399   -25143.754    89558.443    1.0722613 
  809000     8661    328.83642    131.27925   -30659.896    5658.6883            0   -30659.896            0            0    72220.147    5884.4494   -25001.207    89987.869    1.0671444 
  810000     8661    323.13283    156.63915   -30717.855    5560.5397            0   -30717.855            0            0      72118.4    5922.9988   -25157.316    90120.452    1.0655744 
  811000     8661    331.22996    62.377622   -30693.663    5699.8769            0   -30693.663            0            0    72261.124    5809.1723   -24993.786    89181.997    1.0767874 
  812000     8661    334.11878   -17.892016   -30575.947    5749.5882            0   -30575.947            0            0    72423.387    5759.3864   -24826.359    89670.705    1.0709188 
  813000     8661    324.87964   -2.3472384   -30519.664    5590.5992            0   -30519.664            0            0    72493.792    5744.7918   -24929.065    89462.972    1.0734055 
  814000     8661    330.67346      144.667   -30561.208    5690.3004            0   -30561.208            0            0    72428.882    5773.8264   -24870.907    89245.029    1.0760269 
  815000     8661    327.20191   -5.7206834   -30630.247    5630.5612            0   -30630.247            0            0    72337.648    5795.4596   -24999.686     89721.71      1.07031 
  816000     8661    328.52417   -243.59104   -30393.419     5653.315            0   -30393.419            0            0    72703.141     5659.847   -24740.104    90460.303    1.0615712 
  817000     8661    326.63045   -582.12576   -30401.819    5620.7276            0   -30401.819            0            0    72832.733    5521.0487   -24781.091    90599.348    1.0599419 
  818000     8661     323.6221   -10.824269   -30587.377    5568.9592            0   -30587.377            0            0    72423.548    5750.5557   -25018.418    89293.654    1.0754409 
  819000     8661     327.4875    308.84771    -30554.08    5635.4759            0    -30554.08            0            0    72282.268    5922.4289   -24918.604    90276.997    1.0637267 
  820000     8661    329.81729    301.79768    -30663.93    5675.5673            0    -30663.93            0            0    72155.548    5942.0538   -24988.363    89915.122    1.0680078 
  821000     8661    332.13552   -5.3326631    -30697.28    5715.4599            0    -30697.28            0            0    72263.025     5802.696    -24981.82     89625.58     1.071458 
  822000     8661    324.47932     325.7192   -30607.993    5583.7103            0   -30607.993            0            0    72220.984    5928.1302   -25024.283    89621.146    1.0715111 
  823000     8661    327.13251    11.874007   -30616.728     5629.367            0   -30616.728            0            0    72290.687    5854.7506   -24987.361        90561    1.0603908 
  824000     8661    325.71072    14.831493   -30652.977    5604.9005            0   -30652.977            0            0    72298.015    5807.6872   -25048.077    89782.698     1.069583 
  825000     8661    325.86031   -152.30995   -30666.839    5607.4747            0   -30666.839            0            0    72301.652    5792.0678   -25059.364    90313.372    1.0632982 
  826000     8661    331.37086   -164.98298    -30783.17    5702.3015            0    -30783.17            0            0    72178.239    5796.7133   -25080.869    90110.738    1.0656893 
  827000     8661    325.48424     -78.9908   -30597.437    5601.0032            0   -30597.437            0            0    72368.773    5794.3741   -24996.433    90593.491    1.0600105 
  828000     8661    327.07873   -66.105335   -30651.773    5628.4416            0   -30651.773            0            0    72300.319    5803.3769   -25023.331    90382.031    1.0624905 
  829000     8661     327.3266    57.437932   -30722.169    5632.7069            0   -30722.169            0            0    72163.543    5879.0146   -25089.462    90427.615    1.0619549 
  830000     8661    325.12228   -293.25817    -30689.95    5594.7745            0    -30689.95            0            0    72318.242     5757.255   -25095.176     90315.73    1.0632705 
  831000     8661     323.9405   -465.20709    -30602.89    5574.4383            0    -30602.89            0            0    72517.027    5641.2376   -25028.451    90448.101    1.0617144 
  832000     8661    330.31192    211.64985   -30523.298    5684.0791            0   -30523.298            0            0    72353.424    5880.3486   -24839.219     90338.34    1.0630043 
  833000     8661    323.96717    97.989338   -30807.335    5574.8972            0   -30807.335            0            0    72074.763    5881.7514   -25232.437    89194.923    1.0766313 
  834000     8661    329.34632   -341.05614   -30682.324    5667.4627            0   -30682.324            0            0    72354.252    5726.3526   -25014.862    90594.752    1.0599957 
  835000     8661    328.63252   -388.83739   -30639.352    5655.1795            0   -30639.352            0            0    72443.856     5675.676   -24984.172    90249.293    1.0640532 
  836000     8661    331.31407   -228.17487   -30629.673    5701.3243            0   -30629.673            0            0    72360.322    5772.0955   -24928.349    90430.921    1.0619161 
  837000     8661    329.48244    269.67772   -30674.572    5669.8052            0   -30674.572            0            0    72160.721    5925.8059   -25004.766    89792.134    1.0694706 
  838000     8661    326.96514   -330.43651   -30788.963    5626.4869            0   -30788.963            0            0     72189.74    5783.5695   -25162.476    90189.205    1.0647621 
  839000     8661    329.41659   -227.43054   -30706.126     5668.672            0   -30706.126            0            0    72244.849    5804.6343   -25037.454    90754.755    1.0581269 
  840000     8661    330.98414    -199.0844   -30589.372    5695.6467            0   -30589.372            0            0    72503.512    5666.9728   -24893.725    89244.903    1.0760284 
  841000     8661    330.07698    426.49896   -30754.474    5680.0362            0   -30754.474            0            0    71991.256    6013.0606   -25074.438    89659.244    1.0710557 
  842000     8661     332.0361    99.405973   -30605.816    5713.7491            0   -30605.816            0            0    72305.166    5851.4711   -24892.067    89841.785    1.0688796 
  843000     8661    321.97021    374.41186   -30510.426    5540.5331            0   -30510.426            0            0    72345.508    5904.5448   -24969.893    89884.902    1.0683668 
  844000     8661    324.42255    32.655785   -30661.453    5582.7335            0   -30661.453            0            0    72216.782     5885.397   -25078.719    90225.081    1.0643387 
  845000     8661    334.71728   -31.321591   -30550.018    5759.8874            0   -30550.018            0            0    72385.669    5824.4822   -24790.131    90795.804    1.0576485 
  846000     8661    326.29681    119.41889   -30523.391    5614.9862            0   -30523.391            0            0     72432.83    5808.1974   -24908.405    89947.387    1.0676247 
  847000     8661    334.19019    -20.20181   -30600.928    5750.8171            0   -30600.928            0            0    72421.723    5731.6841   -24850.111    89024.648    1.0786906 
  848000     8661     326.0406   -185.76941   -30565.343    5610.5773            0   -30565.343            0            0    72469.217    5726.6575   -24954.766    90057.532    1.0663189 
  849000     8661    330.62788   -134.84275   -30559.589    5689.5161            0   -30559.589            0            0      72499.9    5702.0036   -24870.073    89673.524    1.0708852 
  850000     8661    326.58184    55.612073   -30625.896     5619.891            0   -30625.896            0            0    72335.785    5799.4898   -25006.005    89483.535    1.0731589 
  851000     8661    325.91754     16.08136   -30565.551    5608.4596            0   -30565.551            0            0    72423.319    5774.7026   -24957.091    89605.731    1.0716954 
  852000     8661    322.96523   -191.01846    -30637.95    5557.6555            0    -30637.95            0            0    72399.244    5721.8189   -25080.295    89464.408    1.0733883 
  853000     8661    329.74078     62.87023   -30578.483    5674.2507            0   -30578.483            0            0    72368.963    5815.2278   -24904.233    89866.423    1.0685865 
  854000     8661    327.89444    39.004215   -30642.976    5642.4785            0   -30642.976            0            0    72315.108    5804.2918   -25000.498    89544.055    1.0724335 
  855000     8661    325.59641     124.6901   -30771.705    5602.9335            0   -30771.705            0            0    72107.756    5884.2137   -25168.772    89235.275    1.0761445 
  856000     8661    328.27104   -261.49649   -30475.767    5648.9592            0   -30475.767            0            0    72594.168    5690.5128   -24826.808    90517.038    1.0609058 
  857000     8661    328.16378    278.03448    -30726.91    5647.1133            0    -30726.91            0            0    72102.056    5930.9665   -25079.797    89257.556    1.0758758 
  858000     8661    324.00216   -30.498557   -30537.161    5575.4993            0   -30537.161            0            0    72461.982    5764.8821   -24961.662    89773.096    1.0696974 
  859000     8661    328.07111   -184.44879   -30646.591    5645.5187            0   -30646.591            0            0    72392.052    5720.3377   -25001.073    89524.614    1.0726664 
  860000     8661    324.91529    77.295486   -30639.353    5591.2126            0   -30639.353            0            0    72235.159    5887.1935    -25048.14    90550.273    1.0605164 
  861000     8661    332.42905    205.53279   -30692.664    5720.5111            0   -30692.664            0            0    72212.814    5852.1213   -24972.153    89035.238    1.0785623 
  862000     8661    329.51272    -255.7774    -30734.84    5670.3262            0    -30734.84            0            0     72302.06    5722.6994   -25064.514      89832.2    1.0689936 
  863000     8661    323.43522    215.84997   -30788.598    5565.7432            0   -30788.598            0            0    72032.764    5938.8499   -25222.854    89504.744    1.0729046 
  864000     8661    328.91516   -7.4440081   -30636.133    5660.0432            0   -30636.133            0            0    72356.265    5764.5599   -24976.089    89365.532    1.0745759 
  865000     8661    327.79643   -12.256628   -30728.298    5640.7919            0   -30728.298            0            0    72210.736    5822.5124   -25087.506    89532.177    1.0725758 
  866000     8661    327.89724    113.78149   -30591.146    5642.5267            0   -30591.146            0            0    72301.597    5866.2569    -24948.62    90535.491    1.0606895 
  867000     8661    329.02117    -553.8174   -30698.361    5661.8675            0   -30698.361            0            0    72417.176    5645.2342   -25036.493    90412.089    1.0621373 
  868000     8661    324.36005   -300.53902   -30581.287    5581.6579            0   -30581.287            0            0    72471.892    5704.6709   -24999.629    90318.511    1.0632377 
  869000     8661    327.55215   -456.93488   -30844.355    5636.5883            0   -30844.355            0            0    72202.047    5716.6778   -25207.767    89359.259    1.0746514 
  870000     8661    330.54247    183.09252   -30677.646    5688.0464            0   -30677.646            0            0    72178.393    5907.0306   -24989.599     89751.08    1.0699598 
  871000     8661    333.59793   -605.59547   -30521.903    5740.6254            0   -30521.903            0            0    72688.069    5548.4612   -24781.277    90216.833     1.064436 
  872000     8661     333.7995   -236.33406   -30490.576     5744.094            0   -30490.576            0            0    72618.967    5651.3046   -24746.482    89862.674    1.0686311 
  873000     8661    326.73253   -1.4007729   -30732.201    5622.4842            0   -30732.201            0            0    72219.671    5811.1662   -25109.717    89124.556    1.0774814 
  874000     8661    326.39174      138.825   -30657.837    5616.6197            0   -30657.837            0            0    72224.425     5878.145   -25041.218     89940.69    1.0677041 
  875000     8661    331.21847    239.88259   -30618.436    5699.6792            0   -30618.436            0            0     72216.42    5924.0989   -24918.757    90380.262    1.0625113 
  876000     8661    323.34274   -233.23963   -30709.331    5564.1519            0   -30709.331            0            0    72290.329    5763.4579   -25145.179    90214.242    1.0644666 
  877000     8661    329.47436   -166.94876   -30749.507    5669.6661            0   -30749.507            0            0    72262.012     5750.295   -25079.841    89347.386    1.0747942 
  878000     8661    331.65605    31.323845    -30660.51    5707.2091            0    -30660.51            0            0    72310.934    5788.4689   -24953.301    89602.215    1.0717374 
  879000     8661    334.17182   -107.01535   -30630.351    5750.5011            0   -30630.351            0            0    72355.036    5777.0408    -24879.85    90339.853    1.0629865 
  880000     8661    326.30347    301.26466   -30696.933    5615.1008            0   -30696.933            0            0    72112.949    5950.2051   -25081.832    89866.568    1.0685848 
  881000     8661     329.2953    31.247959   -30567.362    5666.5847            0   -30567.362            0            0     72432.77    5762.5064   -24900.777    89242.455    1.0760579 
  882000     8661    325.29668    119.94986    -30655.34    5597.7756            0    -30655.34            0            0    72203.558    5901.5689   -25057.564    90113.863    1.0656523 
  883000     8661    330.33078    162.54221   -30650.961    5684.4035            0   -30650.961            0            0    72261.655    5843.1197   -24966.558    89786.684    1.0695355 
  884000     8661    322.06936    346.63452   -30705.338    5542.2393            0   -30705.338            0            0    72055.231    5995.9301   -25163.099    89749.478    1.0699789 
  885000     8661    327.40533    -442.2489   -30649.747    5634.0617            0   -30649.747            0            0    72461.742    5645.0321   -25015.685    90096.722    1.0658551 
  886000     8661    324.00846    28.590355   -30571.698    5575.6078            0   -30571.698            0            0    72354.744    5835.3898    -24996.09    90333.799    1.0630578 
  887000     8661    335.90609    550.44277   -30647.148    5780.3447            0   -30647.148            0            0     72085.34    6024.8952   -24866.804    89758.402    1.0698725 
  888000     8661    331.84645    -198.6056   -30624.491    5710.4856            0   -30624.491            0            0    72350.975    5789.6419   -24914.006    90728.517    1.0584329 
  889000     8661    331.74986   -305.32158   -30559.688    5708.8234            0   -30559.688            0            0    72563.808    5636.3323   -24850.864    89890.238    1.0683034 
  890000     8661    328.92962   -141.92665   -30708.395    5660.2921            0   -30708.395            0            0    72245.342    5806.5798   -25048.103    90335.634    1.0630362 
  891000     8661    321.90164   -257.21775   -30575.652     5539.353            0   -30575.652            0            0    72424.768    5760.3911   -25036.299    91167.931    1.0533314 
  892000     8661    325.35993    72.962521   -30627.302    5598.8642            0   -30627.302            0            0    72322.416    5809.9506   -25028.438    89888.375    1.0683256 
  893000     8661      330.777     105.6982   -30612.204    5692.0823            0   -30612.204            0            0    72340.888    5811.7269   -24920.122    89717.362    1.0703619 
  894000     8661    328.46492    73.167967   -30723.787    5652.2954            0   -30723.787            0            0    72212.604    5823.6443   -25071.492    88979.173    1.0792419 
  895000     8661    326.22941    44.925577   -30770.945    5613.8263            0   -30770.945            0            0    72165.559    5821.6746   -25157.119    88722.591     1.082363 
  896000     8661    328.05931    111.16269   -30918.831    5645.3156            0   -30918.831            0            0    71934.207    5909.6761   -25273.515    88935.852    1.0797676 
  897000     8661     326.0274   -138.29481   -30768.613    5610.3501            0   -30768.613            0            0    72232.182    5761.9838   -25158.263    89018.123    1.0787696 
  898000     8661    326.19319   -66.143469   -30684.697     5613.203            0   -30684.697            0            0    72314.081     5757.563   -25071.494    89302.554    1.0753337 
  899000     8661    326.99204   -607.20166   -30765.249    5626.9498            0   -30765.249            0            0     72352.21    5641.2722     -25138.3    90267.089    1.0638434 
  900000     8661    326.87882   -152.61399   -30574.093    5625.0015            0   -30574.093            0            0    72444.904    5739.4148   -24949.092    89797.141     1.069411 
  901000     8661    331.13567   -47.490709   -30734.258    5698.2542            0   -30734.258            0            0    72224.877    5797.7626   -25036.004    89194.003    1.0766424 
  902000     8661    335.24864    379.66149   -30801.857    5769.0311            0   -30801.857            0            0    71955.897    6003.9664   -25032.826    89635.079    1.0713445 
  903000     8661    321.78515    31.139528   -30752.461    5537.3485            0   -30752.461            0            0    72131.911    5878.1273   -25215.113    89761.918    1.0698306 
  904000     8661    322.67448   -10.901677   -30525.323    5552.6523            0   -30525.323            0            0    72471.896    5763.4527   -24972.671    89563.037    1.0722062 
  905000     8661    328.27653    86.222631   -30734.352    5649.0536            0   -30734.352            0            0    72152.202    5878.8268   -25085.299    89677.853    1.0708335 
  906000     8661    333.62288    323.87601   -30645.957    5741.0547            0   -30645.957            0            0    72193.695     5919.968   -24904.902    89493.249    1.0730424 
  907000     8661    328.53241    32.798197   -30512.452    5653.4568            0   -30512.452            0            0    72514.577     5732.873   -24858.996    89590.421    1.0718785 
  908000     8661    326.22759   -273.57708   -30745.429     5613.795            0   -30745.429            0            0    72289.646    5726.3202   -25131.634    89582.445     1.071974 
  909000     8661    329.37314    320.47716   -30600.263    5667.9243            0   -30600.263            0            0    72229.574    5929.2353   -24932.339    89857.336    1.0686946 
  910000     8661    322.26694   -56.836998   -30635.521    5545.6393            0   -30635.521            0            0    72312.594    5810.7554   -25089.882    89690.336    1.0706845 
  911000     8661    329.31486    543.47963   -30788.393    5666.9214            0   -30788.393            0            0    71951.691    6018.3953   -25121.471    89189.925    1.0766917 
  912000     8661    326.24662   -365.91162   -30870.371    5614.1224            0   -30870.371            0            0    72168.747    5722.7235   -25256.249    89240.123     1.076086 
  913000     8661    330.67565   -28.652077   -30659.774    5690.3381            0   -30659.774            0            0    72251.034    5841.0919   -24969.436    90182.605      1.06484 
  914000     8661    325.50075   -91.451361   -30686.887    5601.2873            0   -30686.887            0            0    72283.818     5789.825     -25085.6    89505.248    1.0728985 
  915000     8661    325.03292    1.1842089   -30800.003    5593.2368            0   -30800.003            0            0     72072.99    5891.3745   -25206.767    89592.393    1.0718549 
  916000     8661     319.1817    114.60987   -30622.459    5492.5478            0   -30622.459            0            0    72295.309    5844.8755   -25129.911    89450.713    1.0735526 
  917000     8661    327.54548   -160.56814   -30625.882    5636.4735            0   -30625.882            0            0    72440.001    5694.8533   -24989.408     89489.85    1.0730831 
  918000     8661    326.85057    389.02876   -30503.584    5624.5153            0   -30503.584            0            0    72309.212     5945.579   -24879.069    90355.547    1.0628019 
  919000     8661     326.6004    -74.73267   -30688.858    5620.2104            0   -30688.858            0            0    72319.699    5750.8369   -25068.648    88977.085    1.0792672 
  920000     8661    327.34327   -3.4746215   -30747.301    5632.9938            0   -30747.301            0            0    72145.143    5870.1819   -25114.307      89692.4    1.0706598 
  921000     8661    334.07816     301.7566   -30687.243    5748.8893            0   -30687.243            0            0    72124.598    5948.1813   -24938.354    89882.237    1.0683985 
  922000     8661     329.0559   -113.26117   -30610.137    5662.4651            0   -30610.137            0            0    72383.902    5761.7183   -24947.672    90349.307    1.0628753 
  923000     8661    330.67804   -539.51006    -30769.56    5690.3793            0    -30769.56            0            0    72346.377    5646.3721   -25079.181    90054.017    1.0663605 
  924000     8661    330.87369   -192.79442   -30585.421    5693.7461            0   -30585.421            0            0    72447.065    5725.1741   -24891.675    90066.388    1.0662141 
  925000     8661    327.95757   -139.84493   -30655.348    5643.5649            0   -30655.348            0            0    72259.856    5847.4918   -25011.783    91051.214    1.0546817 
  926000     8661    334.15071    17.726355    -30696.75    5750.1377            0    -30696.75            0            0     72230.75    5833.3709   -24946.612    89948.417    1.0676124 
  927000     8661    327.48637    874.46335   -30530.549    5635.4564            0   -30530.549            0            0    72141.809    6090.3265   -24895.092    89883.036     1.068389 
  928000     8661    322.78849    9.5550388   -30647.202    5554.6142            0   -30647.202            0            0    72263.291    5848.2599   -25092.588    90288.678     1.063589 
  929000     8661    323.35454   -199.38347    -30592.72    5564.3549            0    -30592.72            0            0    72377.663     5788.311   -25028.365    90738.545    1.0583159 
  930000     8661    328.60028    126.92199   -30691.164    5654.6248            0   -30691.164            0            0    72198.862    5872.8306    -25036.54    89837.281    1.0689332 
  931000     8661    325.48403   -29.934797   -30860.368    5600.9997            0   -30860.368            0            0    72011.621    5889.4595   -25259.368    89457.396    1.0734724 
  932000     8661    322.88442   -86.950718    -30595.75    5556.2649            0    -30595.75            0            0    72418.712    5743.1191   -25039.485    89988.837    1.0671329 
  933000     8661     325.0782   -53.757038   -30786.748     5594.016            0   -30786.748            0            0    72128.568    5843.8612   -25192.732    89590.791    1.0718741 
  934000     8661    328.50584   -339.69758   -30829.723    5652.9997            0   -30829.723            0            0    72199.159    5730.9147   -25176.723    89783.721    1.0695708 
  935000     8661    325.06043    -472.5657   -30559.691    5593.7103            0   -30559.691            0            0     72621.38    5574.9645   -24965.981    90118.853    1.0655933 
  936000     8661    328.73029    239.05049   -30486.413     5656.862            0   -30486.413            0            0     72367.37    5907.7341   -24829.551    90633.634     1.059541 
  937000     8661    327.70533    114.32769   -30595.085    5639.2243            0   -30595.085            0            0    72312.765    5847.7066    -24955.86    90524.043    1.0608237 
  938000     8661    332.74892   -88.680441   -30622.033    5726.0155            0   -30622.033            0            0    72344.551    5797.9815   -24896.018    90028.698    1.0666604 
  939000     8661    329.25474   -75.120638   -30643.166    5665.8868            0   -30643.166            0            0     72369.04    5748.9521   -24977.279    89589.272    1.0718923 
  940000     8661    327.64274   -16.766197   -30640.428    5638.1471            0   -30640.428            0            0    72313.898    5806.2133   -25002.281    89857.987    1.0686868 
  941000     8661    329.32517   -184.01395   -30586.245    5667.0988            0   -30586.245            0            0    72463.979    5709.4606   -24919.146    89511.024    1.0728293 
  942000     8661      329.967    -14.19728   -30896.981    5678.1436            0   -30896.981            0            0    71997.778    5867.1649   -25218.838    89202.729    1.0765371 
  943000     8661    323.69798    255.59391    -30736.82    5570.2648            0    -30736.82            0            0    72080.558     5943.711   -25166.556    89352.241    1.0747358 
  944000     8661    328.86844    210.59974   -30790.205    5659.2393            0   -30790.205            0            0    72051.246    5922.2645   -25130.966    89308.692    1.0752598 
  945000     8661    326.37254    466.30436   -30654.766    5616.2893            0   -30654.766            0            0     72088.17    6017.0439   -25038.476    90022.618    1.0667324 
  946000     8661    326.95935   -122.75745   -30692.211    5626.3873            0   -30692.211            0            0    72197.523    5875.7528   -25065.824     90879.61    1.0566732 
  947000     8661    322.90469   -163.50963   -30739.812    5556.6138            0   -30739.812            0            0    72256.184    5761.1469   -25183.198    89587.323    1.0719156 
  948000     8661     332.8022    -656.8661   -30630.414    5726.9323            0   -30630.414            0            0    72524.227    5605.2623   -24903.482    90791.162    1.0577026 
  949000     8661    322.87611   -323.00346   -30569.034     5556.122            0   -30569.034            0            0    72520.848    5672.8218   -25012.912    89710.353    1.0704455 
  950000     8661    320.76831   -55.095874   -30674.782    5519.8505            0   -30674.782            0            0    72311.211    5775.6842   -25154.931    89457.201    1.0734748 
  951000     8661    330.44048   -72.993729   -30601.723    5686.2912            0   -30601.723            0            0    72369.603    5789.9615   -24915.431    90549.281     1.060528 
  952000     8661    328.42789   -137.27755   -30581.282    5651.6583            0   -30581.282            0            0     72444.83    5735.3172   -24929.624    89972.232    1.0673298 
  953000     8661    328.26427    218.04985   -30635.086    5648.8426            0   -30635.086            0            0    72242.156    5886.3531   -24986.243    89816.187    1.0691842 
  954000     8661    323.89948    304.89195   -30729.078    5573.7323            0   -30729.078            0            0    72105.356    5930.1671   -25155.346    89138.527    1.0773125 
  955000     8661    326.99228    209.90468   -30564.009    5626.9539            0   -30564.009            0            0    72252.687     5942.965   -24937.055    90636.067    1.0595125 
  956000     8661    332.53771   -430.71585   -30584.448    5722.3808            0   -30584.448            0            0    72470.778    5708.4822   -24862.067    91019.628    1.0550477 
  957000     8661    331.22725   -443.74662   -30635.669    5699.8302            0   -30635.669            0            0    72500.387    5627.4001   -24935.839    89710.508    1.0704437 
  958000     8661    330.67885    21.127677    -30658.86    5690.3932            0    -30658.86            0            0    72282.931    5821.4099   -24968.467    89963.718    1.0674309 
  959000     8661    322.52275     128.0931   -30545.422    5550.0413            0   -30545.422            0            0    72382.417    5836.2721   -24995.381    89778.773    1.0696298 
  960000     8661    325.54944    41.603049   -30627.409    5602.1253            0   -30627.409            0            0    72302.278    5832.3557   -25025.284    89757.688     1.069881 
  961000     8661    325.36742   -141.46168   -30727.174     5598.993            0   -30727.174            0            0    72267.837    5770.3018   -25128.181    89616.354    1.0715683 
  962000     8661    327.53655   -233.16012   -30803.502    5636.3198            0   -30803.502            0            0    72177.659    5782.6284   -25167.182    89933.033    1.0677951 
  963000     8661    331.55615    2.9038665   -30626.481    5705.4901            0   -30626.481            0            0    72335.455    5800.9382   -24920.991    89720.366    1.0703261 
  964000     8661    328.29968    200.42365   -30784.017    5649.4519            0   -30784.017            0            0    72149.753    5828.4176   -25134.565     88173.37    1.0891049 
  965000     8661    330.75656   -32.531277   -30597.042    5691.7305            0   -30597.042            0            0    72410.716     5749.219   -24905.312    89601.786    1.0717426 
  966000     8661    331.98019   -294.53471    -30578.65     5712.787            0    -30578.65            0            0    72512.957    5667.6964   -24865.863    90360.448    1.0627443 
  967000     8661     327.5946    69.054837    -30569.59    5637.3188            0    -30569.59            0            0    72376.618     5812.339   -24932.272    89878.838    1.0684389 
  968000     8661    326.14671    -111.8776   -30664.185    5612.4032            0   -30664.185            0            0    72300.718    5794.7471   -25051.782    89982.495    1.0672081 
  969000     8661    329.00539    185.11014   -30663.125     5661.596            0   -30663.125            0            0    72209.038    5889.8242   -25001.529    89831.705    1.0689995 
  970000     8661    324.53345   -53.432533   -30582.798    5584.6418            0   -30582.798            0            0    72391.498    5788.4976   -24998.157    90240.905    1.0641521 
  971000     8661    328.69279     106.1295   -30461.874    5656.2167            0   -30461.874            0            0    72493.778    5805.0074   -24805.657    90072.322    1.0661438 
  972000     8661    330.05661   -169.73797   -30763.522    5679.6855            0   -30763.522            0            0    72228.303    5768.5458   -25083.837    89590.193    1.0718812 
  973000     8661    333.66729    77.198729   -30569.207     5741.819            0   -30569.207            0            0    72348.882    5840.2768   -24827.388    90162.219    1.0650808 
  974000     8661    326.80158   -241.23529   -30702.752    5623.6724            0   -30702.752            0            0    72293.418    5764.3254    -25079.08    90292.083    1.0635489 
  975000     8661    333.18755   -2.2417392   -30542.435    5733.5635            0   -30542.435            0            0    72487.716    5731.9547   -24808.871     89597.77    1.0717906 
  976000     8661    333.02886    410.93238   -30679.551    5730.8327            0   -30679.551            0            0    72073.812    6002.7222   -24948.719    90108.776    1.0657125 
  977000     8661    319.21217    273.91088   -30745.496    5493.0722            0   -30745.496            0            0    72031.881    5984.6777   -25252.424    89620.645     1.071517 
  978000     8661    328.72803   -2.4903994   -30697.733    5656.8231            0   -30697.733            0            0    72192.855    5871.1414    -25040.91    90238.202     1.064184 
  979000     8661    329.50183   -410.26769   -30853.419    5670.1389            0   -30853.419            0            0    72167.856    5741.9273    -25183.28    89969.773     1.067359 
  980000     8661    331.43371    -158.6876     -30636.1     5703.383            0     -30636.1            0            0    72374.476    5748.8132   -24932.717    90376.854    1.0625513 
  981000     8661    328.64269   -324.64248   -30630.253    5655.3544            0   -30630.253            0            0    72454.825    5677.4055   -24974.899    89831.794    1.0689984 
  982000     8661    330.17301    12.717614   -30750.304    5681.6887            0   -30750.304            0            0    72178.996     5832.528   -25068.616    89599.028    1.0717756 
  983000     8661    331.71051    121.16582   -30753.793    5708.1462            0   -30753.793            0            0    72063.322    5946.2801   -25045.647    89962.655    1.0674435 
  984000     8661    329.48413   -3.4984229   -30423.308    5669.8342            0   -30423.308            0            0    72595.773    5739.3029   -24753.473    90169.989     1.064989 
  985000     8661    328.12026   -131.43975   -30720.375    5646.3644            0   -30720.375            0            0    72259.999    5781.5838   -25074.011    89768.419    1.0697531 
  986000     8661    332.11902   -5.5036028   -30600.375    5715.1759            0   -30600.375            0            0    72385.832    5771.6086   -24885.199    89768.704    1.0697497 
  987000     8661    333.38378   -267.66406   -30714.255    5736.9402            0   -30714.255            0            0    72249.622    5796.3583   -24977.315    91030.405    1.0549228 
  988000     8661    328.27056     46.02192   -30615.859    5648.9509            0   -30615.859            0            0    72346.007     5798.134   -24966.909    89795.631     1.069429 
  989000     8661    326.78842   -398.82144   -30775.046    5623.4459            0   -30775.046            0            0    72219.225    5769.7711     -25151.6    90502.304    1.0610785 
  990000     8661    330.61184    226.80115   -30477.156    5689.2401            0   -30477.156            0            0    72449.118    5833.2231   -24787.916    89708.669    1.0704656 
  991000     8661    327.91996    101.73626   -30605.266    5642.9176            0   -30605.266            0            0    72312.818    5842.5737   -24962.348    90002.187    1.0669746 
  992000     8661    327.47401   0.76520096   -30858.195    5635.2436            0   -30858.195            0            0    72016.994    5886.6286   -25222.951    88867.708    1.0805955 
  993000     8661    326.30263    68.244737   -30611.426    5615.0863            0   -30611.426            0            0    72359.722    5789.5175    -24996.34    89477.078    1.0732363 
  994000     8661     323.3814   -510.24718   -30701.053    5564.8171            0   -30701.053            0            0    72402.396    5655.2465   -25136.236     90508.44    1.0610066 
  995000     8661    324.23777    -148.3115   -30662.463    5579.5537            0   -30662.463            0            0     72394.76    5703.9163    -25082.91    89111.264    1.0776421 
  996000     8661    324.11757   -353.10839   -30666.148    5577.4853            0   -30666.148            0            0    72363.845    5730.4527   -25088.663     90267.26    1.0638414 
  997000     8661    329.69357    220.67281   -30468.526    5673.4382            0   -30468.526            0            0    72461.518    5828.6815   -24795.087     90125.23    1.0655179 
  998000     8661    327.30032   -88.255975   -30613.715    5632.2548            0   -30613.715            0            0    72426.198    5725.0757    -24981.46    89448.604    1.0735779 
  999000     8661    330.33142    25.354397   -30551.086    5684.4145            0   -30551.086            0            0    72436.715    5771.3796   -24866.672    89735.808    1.0701419 
 1000000     8661    326.85854    286.22756   -30722.995    5624.6525            0   -30722.995            0            0    72092.052    5943.7158   -25098.343    89308.541    1.0752616 
Loop time of 52623.7 on 4 procs for 1000000 steps with 8661 atoms

Performance: 1.642 ns/day, 14.618 hours/ns, 19.003 timesteps/s
93.9% CPU use with 4 MPI tasks x no OpenMP threads

MPI task timing breakdown:
Section |  min time  |  avg time  |  max time  |%varavg| %total
---------------------------------------------------------------
Pair    | 42007      | 43297      | 44852      | 570.1 | 82.28
Bond    | 4.1587     | 4.592      | 5.0951     |  18.9 |  0.01
Kspace  | 3525.6     | 5067.6     | 6344.1     |1654.0 |  9.63
Neigh   | 2458.3     | 2459       | 2459.7     |   1.0 |  4.67
Comm    | 561.82     | 581.63     | 602.74     |  61.2 |  1.11
Output  | 0.94817    | 0.95814    | 0.98498    |   1.6 |  0.00
Modify  | 1119.6     | 1129.6     | 1134.3     |  17.5 |  2.15
Other   |            | 83.76      |            |       |  0.16

Nlocal:    2165.25 ave 2186 max 2149 min
Histogram: 2 0 0 0 0 0 0 1 0 1
Nghost:    19781 ave 19854 max 19732 min
Histogram: 2 0 0 0 0 1 0 0 0 1
Neighs:    1.79947e+06 ave 1.86883e+06 max 1.73702e+06 min
Histogram: 2 0 0 0 0 0 0 0 1 1

Total # of neighbors = 7197889
Ave neighs/atom = 831.069
Ave special neighs/atom = 2
Neighbor list builds = 39375
Dangerous builds = 0
 write_data data.4
PPPM initialization ...
  using 12-bit tables for long-range coulomb (../kspace.cpp:332)
  G vector (1/distance) = 0.18653
  grid = 16 16 16
  stencil order = 5
  estimated absolute RMS force accuracy = 0.0306694
  estimated relative force accuracy = 9.23599e-05
  using double precision KISS FFT
  3d grid and FFT values/proc = 3549 1024


# ----------------- Run Section -----------------

# The lines above define the system you want to simulate.
# What you do next is up to you.
# Typically a user would minimize and equilibrate
# the system using commands similar to the following:
#  ----   examples   ----
#
#  -- minimize --
# minimize 1.0e-5 1.0e-7 1000 10000
# (Note: Some fixes, for example "shake", interfere with the minimize command,
#        You can use the "unfix" command to disable them before minimization.)
#  -- declare time step for normal MD --
# timestep 1.0
#  -- run at constant pressure (Nose-Hoover)--
# fix   fxnpt all npt temp 300.0 300.0 100.0 iso 1.0 1.0 1000.0 drag 1.0
#  -- ALTERNATELY, run at constant volume (Nose-Hoover) --
# fix   fxnvt all nvt temp 300.0 300.0 500.0 tchain 1
#  -- ALTERNATELY, run at constant volume using Langevin dynamics. --
#  -- (This is good for sparse CG polymers in implicit solvent.)   --
# fix fxLAN all langevin 300.0 300.0 5000 48279
# fix fxNVE all nve  #(<--needed by fix langevin)
#  -- Now, finally run the simulation --
# run   50000
#  ---- (end of examples) ----

Total wall time: 14:37:04
